system
1.00000000
       8.700553000    0.000000000    0.000000000
       4.349951780    7.729208474    0.000000000
       0.133006341   -1.923621642   10.502749082
Al P O
12 12 48 
Direct
       0.960533939    0.194971876    0.280876034
       0.452348331    0.194469213    0.260554252
       0.602129375    0.623663644    0.216326642
       0.060079764    0.617420249    0.205216219
       0.146540418    0.985551002    0.886592928
       0.722809168    0.971338052    0.877221761
       0.172247517    0.279988703    0.545421332
       0.634781608    0.328263636    0.536645833
       0.646273510    0.528678786    0.934600423
       0.247329178    0.486507790    0.944350470
       0.735705396    0.862213709    0.591022799
       0.174001154    0.868701331    0.586413060
       0.312945737    0.977881110    0.370499678
       0.862087973    0.963658362    0.414666292
       0.699532344    0.250496767    0.095145355
       0.177824502    0.244622993    0.081533584
       0.795470494    0.508312277    0.449842622
       0.280113575    0.508274861    0.436922388
       0.286760647    0.730893450    0.073942939
       0.715427265    0.813246261    0.112579500
       0.927406884    0.254889151    0.722727909
       0.467397477    0.234179205    0.719094474
       0.524146519    0.811012672    0.777055152
       0.043307114    0.731291341    0.774098773
       0.036049735    0.300555632    0.188329704
       0.536996769    0.309879642    0.185257464
       0.169128770    0.996752734    0.284623816
       0.680988042    0.992276801    0.462596231
       0.326808614    0.149231944    0.379919313
       0.819856964    0.149464771    0.391723199
       0.978091218    0.331595542    0.437165791
       0.473105122    0.342734857    0.420534651
       0.872689855    0.128437505    0.143569985
       0.358673535    0.134425000    0.122872459
       0.696244047    0.427548226    0.081114418
       0.163703887    0.424602496    0.067661889
       0.591198683    0.734975585    0.070269455
       0.128695584    0.697276744    0.075592100
       0.735850617    0.473193276    0.316511789
       0.216660186    0.479924014    0.303724922
       0.830183937    0.659412615    0.471148328
       0.297533590    0.671456114    0.460146710
       0.494680578    0.818168448    0.341659830
       0.972011341    0.830516911    0.299727136
       0.377874436    0.671695396    0.189750713
       0.840563926    0.655801816    0.178193552
       0.231214301    0.903053423    0.035044241
       0.639122811    0.976494722    0.213835625
       0.012726277    0.355776892    0.682003601
       0.486223827    0.381597857    0.676294294
       0.075458148    0.061614216    0.729374237
       0.656463441    0.071501249    0.720146527
       0.136049941    0.183265616    0.953579689
       0.677304935    0.174800393    0.965161764
       0.829156468    0.329614085    0.855245289
       0.386100806    0.283245197    0.855289700
       0.817085447    0.228579608    0.625282213
       0.363957826    0.180141743    0.629404248
       0.655752892    0.517622418    0.541272257
       0.170231958    0.480528755    0.532084233
       0.558989075    0.831951606    0.642738757
       0.176519385    0.717622505    0.679367063
       0.654075603    0.629667206    0.807099502
       0.104368831    0.571032321    0.832181361
       0.801908404    0.827014933    0.996865842
       0.409767403    0.574647030    0.956243862
       0.528296755    0.952841307    0.875026216
       0.989464343    0.902284479    0.874436100
       0.341534777    0.830621434    0.789144640
       0.861483696    0.774176514    0.727991341
       0.228563653    0.007521041    0.507986907
       0.963636676    0.902000625    0.531298770
