system
1.00000000
       8.786030000    0.000000000    0.000000000
      -4.258729345    7.536484426    0.000000000
      -0.274223238   -0.109206567   10.637293552
Al P O
12 12 48 
Direct
       0.245055613    0.048552485    0.277787194
       0.241184113    0.538490239    0.290836746
       0.631754847    0.484316822    0.256314673
       0.676582341    0.915109384    0.222095173
       0.010824355    0.674976001    0.904964855
       0.005598603    0.285400689    0.930605627
       0.261280171    0.803959429    0.546683982
       0.240038749    0.285479541    0.554324611
       0.454344447    0.204706859    0.907732493
       0.532897098    0.796734943    0.915330964
       0.873258129    0.350295637    0.570156986
       0.817612935    0.741247068    0.611859661
       0.995355142    0.700762681    0.378768902
       0.996262031    0.181745777    0.370305416
       0.309592758    0.334378678    0.091271262
       0.300857269    0.797498582    0.097815645
       0.500471636    0.196147680    0.455878520
       0.501639067    0.695551619    0.458770514
       0.807523844    0.791673585    0.064281637
       0.706778382    0.239138440    0.101536515
       0.177634906    0.981696496    0.736624776
       0.213775012    0.534484537    0.742709853
       0.687954436    0.468371509    0.751581182
       0.802853347    0.049743474    0.748931526
       0.337590053    0.950579730    0.181345859
       0.391336675    0.462981501    0.207178924
       0.037625137    0.843053606    0.283603279
       0.040542217    0.327158541    0.275150468
       0.149515176    0.658007142    0.395725439
       0.159969231    0.157517794    0.391168179
       0.347907414    0.001241602    0.437442838
       0.336225436    0.503799367    0.447226944
       0.207668082    0.147773782    0.140247935
       0.179880841    0.622556300    0.158603366
       0.456522126    0.367091198    0.004323705
       0.484843873    0.808122532    0.079167459
       0.710113540    0.409111845    0.136870910
       0.843878916    0.979188305    0.096190416
       0.489385837    0.262929497    0.320653050
       0.488568612    0.763559234    0.324123107
       0.672769185    0.205118935    0.485300052
       0.665814401    0.681576749    0.472860440
       0.822629164    0.531427394    0.359824848
       0.833018516    0.006523989    0.354800672
       0.711470390    0.703443809    0.191115008
       0.678695520    0.122669852    0.214624148
       0.960095406    0.763959617    0.039602133
       0.877699574    0.301799095    0.037852120
       0.308335639    0.929297584    0.688544454
       0.237688177    0.381126259    0.703949297
       0.005617184    0.802605628    0.764336510
       0.071230027    0.490690397    0.843540870
       0.238952846    0.796823987    0.962112533
       0.199107640    0.389031551    0.014662661
       0.236696859    0.077325063    0.862948231
       0.380052881    0.672033289    0.801614703
       0.136559321    0.077439993    0.635378224
       0.135740235    0.584237158    0.627802774
       0.450801817    0.299492370    0.543169130
       0.467268858    0.800404505    0.555244123
       0.802248575    0.495523858    0.632729640
       0.805511283    0.938750787    0.641818496
       0.540152544    0.279797047    0.761181650
       0.631239070    0.975754937    0.816217868
       0.561552819    0.127149177    0.002614634
       0.678744597    0.719260561    0.952326248
       0.794443908    0.500980860    0.873218142
       0.947328269    0.088223143    0.850405451
       0.638853390    0.609981278    0.720620519
       0.841753960    0.233657577    0.708109345
       0.007059831    0.778469185    0.513287042
       0.007850886    0.270056663    0.501828216
