system
1.00000000
       7.494144000    0.000000000    0.000000000
       0.080302901    7.483171142    0.000000000
      -0.500865231   -2.510222124   12.443677081
Al P O
12 12 48 
Direct
       0.186914627    0.012747547    0.241279996
       0.569930441    0.431315679    0.262660645
       0.168729637    0.436614527    0.252574731
       0.664501694    0.840975954    0.221666403
       0.303972425    0.249181591    0.922146767
       0.758952773    0.632912045    0.923628525
       0.463920220    0.111179259    0.597257373
       0.963835277    0.566392017    0.597226666
       0.142155594    0.725129717    0.893994789
       0.694178723    0.166559216    0.900244679
       0.357647099    0.606735596    0.560825780
       0.859248711    0.026036159    0.549485605
       0.367541239    0.784657111    0.366623700
       0.656984079    0.333530015    0.458585175
       0.874466982    0.988742106    0.065335793
       0.412830543    0.653862054    0.042175707
       0.158238465    0.240862937    0.455693931
       0.869990226    0.712670630    0.369338640
       0.849972422    0.471971657    0.109846867
       0.383055711    0.142593146    0.089960301
       0.979123089    0.349570842    0.783857994
       0.664562697    0.828036784    0.706257272
       0.163714060    0.919208752    0.702461113
       0.467845576    0.445102983    0.780828587
       0.486306518    0.674494348    0.158364297
       0.707505422    0.982403860    0.128795923
       0.192529409    0.854575598    0.322019198
       0.642150183    0.259474391    0.337952437
       0.367778167    0.793090480    0.487306838
       0.816464260    0.450860039    0.497392558
       0.512285774    0.901333850    0.336006304
       0.012256295    0.569330455    0.335471897
       0.022868556    0.031114415    0.149834111
       0.556553143    0.723304248    0.979433313
       0.830855191    0.674728157    0.149863827
       0.521014358    0.145175529    0.004493335
       0.377085146    0.323852165    0.178296390
       0.731808326    0.360502026    0.165965842
       0.171371760    0.239604948    0.328887714
       0.687921329    0.618822902    0.344542159
       0.317484589    0.138170688    0.487533565
       0.899986238    0.784565611    0.491982457
       0.360474183    0.572660433    0.316846730
       0.852832342    0.885439342    0.321717283
       0.047491955    0.421357915    0.127165891
       0.382861075    0.007850430    0.165709264
       0.863969632    0.125895073    0.993338614
       0.242361097    0.763037306    0.024977716
       0.335100252    0.012759452    0.686636328
       0.838916774    0.723056043    0.691102761
       0.819707196    0.238254640    0.798624549
       0.313231091    0.571894109    0.817560330
       0.353763648    0.458993548    0.006553015
       0.914893991    0.809890273    0.980567103
       0.143821182    0.261130198    0.823077402
       0.653481585    0.929713933    0.822373431
       0.988142041    0.380563402    0.670310025
       0.508535269    0.703883251    0.666215158
       0.160544985    0.445870948    0.509563433
       0.662889589    0.169138952    0.518359112
       0.164781040    0.715110887    0.637461494
       0.662241728    0.973404252    0.630793466
       0.975075283    0.548240292    0.856343656
       0.490728366    0.276604200    0.841366362
       0.216592973    0.131772471    0.015801384
       0.779099620    0.438701748    0.990041437
       0.148083706    0.902901758    0.820224905
       0.647041436    0.538126399    0.800145466
       0.011958438    0.019479919    0.658839764
       0.435007650    0.350607987    0.664131013
       0.991297602    0.142916676    0.469816598
       0.490560623    0.445026979    0.483304474
