system
1.00000000
       8.931512000    0.000000000    0.000000000
      -4.443716678    7.788115962    0.000000000
      -0.577208244   -0.126851486   10.264648283
Al P O
12 12 48 
Direct
       0.238954711    0.264887754    0.224756429
       0.823788618    0.292759860    0.277476232
       0.360790083    0.827098877    0.224998891
       0.856770287    0.772298506    0.283315258
       0.355647438    0.029880592    0.911140382
       0.937247678    0.991973794    0.924052506
       0.391593549    0.227187920    0.601840193
       0.975715528    0.392616855    0.594812660
       0.361863359    0.606503517    0.901273896
       0.780067226    0.412465652    0.892785085
       0.542419795    0.802888802    0.599632471
       0.949755990    0.789789051    0.559793901
       0.214433602    0.970401337    0.378799060
       0.833574813    0.047489678    0.447863092
       0.048138259    0.389883900    0.064127483
       0.538023069    0.310445231    0.114803604
       0.278607328    0.528596546    0.411569480
       0.718639175    0.453027395    0.458570257
       0.035727571    0.762735192    0.035275779
       0.640306019    0.852285765    0.097422514
       0.226522920    0.257787285    0.784569689
       0.649122046    0.135232422    0.731756264
       0.217032499    0.746124613    0.714286292
       0.677516438    0.660787717    0.763180356
       0.452517190    0.394415162    0.185504538
       0.992708942    0.440875551    0.188670807
       0.058258505    0.785464474    0.390741006
       0.866276104    0.126940554    0.311840699
       0.159235729    0.047868293    0.264247142
       0.943600549    0.177792374    0.553879697
       0.235076137    0.346409276    0.374900433
       0.775054577    0.317009919    0.439671624
       0.894595074    0.311059527    0.968020447
       0.663882599    0.431933634    0.021300927
       0.095728578    0.248207304    0.096562289
       0.626018856    0.244459178    0.211183071
       0.523591470    0.930229076    0.117390626
       0.107630005    0.936068262    0.957107160
       0.317933248    0.632303445    0.285950931
       0.861459481    0.558790864    0.565314279
       0.438126867    0.612219566    0.501805187
       0.536115825    0.379118568    0.494237091
       0.376453290    0.966606371    0.350183730
       0.889676240    0.906739001    0.437792965
       0.967092582    0.621761614    0.933824130
       0.800404912    0.992111868    0.035861958
       0.388219055    0.149599667    0.050371629
       0.541878007    0.694587582    0.010994566
       0.306855753    0.136528374    0.778563445
       0.821685394    0.309498767    0.727406274
       0.269568023    0.330260755    0.648152270
       0.670887696    0.980051528    0.725278329
       0.187667322    0.789089134    0.121458144
       0.204335371    0.545881132    0.016651014
       0.033926648    0.149140488    0.806069571
       0.587342411    0.152112733    0.867299231
       0.319633185    0.389245543    0.890961793
       0.528244740    0.137669722    0.625652015
       0.115747506    0.511582749    0.468384220
       0.746666744    0.559588953    0.338260657
       0.344564361    0.812616368    0.609346185
       0.743058840    0.747236174    0.629630579
       0.133634225    0.549304492    0.726410136
       0.657662900    0.483359313    0.774564284
       0.682934717    0.802946927    0.230917150
       0.901065112    0.753147438    0.122451789
       0.318356101    0.817437867    0.851724466
       0.802372261    0.784995669    0.862850299
       0.089718802    0.812617206    0.695741719
       0.500927577    0.658723396    0.758108823
       0.225893723    0.056786876    0.507175275
       0.643346289    0.952064306    0.471356349
