system
1.00000000
       8.947109000    0.000000000    0.000000000
       2.822865125    6.926552905    0.000000000
      -2.124641389    4.265031237   11.219788646
Al P O
12 12 48 
Direct
       0.503071256    0.255759067    0.205318391
       0.951994307    0.664393563    0.189365117
       0.583883454    0.810151808    0.220166924
       0.075332767    0.163891717    0.246805833
       0.943837472    0.313309561    0.954825726
       0.399644023    0.038206194    0.795294431
       0.841529361    0.010413239    0.576839942
       0.484223123    0.210751678    0.583710809
       0.958883662    0.899727154    0.961113926
       0.481186875    0.542044613    0.860371521
       0.924858130    0.485814590    0.580500060
       0.299135111    0.756331823    0.461890437
       0.588192946    0.891960873    0.454089355
       0.132129631    0.260030653    0.433729463
       0.177254217    0.420936417    0.057042868
       0.623052273    0.073596142    0.013475162
       0.576597968    0.429979402    0.400325143
       0.950900873    0.863117668    0.358453841
       0.228461363    0.837066902    0.169308852
       0.700349883    0.490893948    0.095627529
       0.751736012    0.787805545    0.782993232
       0.252093789    0.513141268    0.687574826
       0.730681359    0.320418833    0.738493120
       0.152654019    0.948022080    0.783221014
       0.559717584    0.058703410    0.125095303
       0.213737667    0.247711846    0.172819838
       0.538676805    0.997713603    0.315411178
       0.022232466    0.333502344    0.506257331
       0.752833997    0.706054768    0.487814451
       0.302454035    0.248501992    0.475612988
       0.479156694    0.365894131    0.316506097
       0.038243473    0.395464905    0.296500531
       0.388325962    0.804131803    0.132330485
       0.730410105    0.644804633    0.151961211
       0.164449911    0.676068092    0.205069627
       0.570084883    0.618548337    0.974915861
       0.655219264    0.349869804    0.179422469
       0.253487862    0.903134679    0.280169414
       0.464019994    0.477921141    0.485399075
       0.936235195    0.044189035    0.256421035
       0.755423857    0.276227065    0.476328026
       0.131132779    0.690615694    0.411897529
       0.592535727    0.619598329    0.339043524
       0.146408384    0.055156204    0.421879110
       0.338407435    0.446713621    0.068003835
       0.881275850    0.355385591    0.087270270
       0.124247628    0.358612578    0.952211902
       0.817025004    0.926911907    0.063237411
       0.833038903    0.406289821    0.679526672
       0.368079976    0.288042343    0.687244983
       0.575013099    0.479214343    0.747394764
       0.175505137    0.138477198    0.793961362
       0.513084471    0.019918147    0.932856924
       0.076436695    0.013736993    0.056960205
       0.788969194    0.568119748    0.853002655
       0.301116197    0.495033093    0.816787184
       0.554041461    0.928665052    0.717059086
       0.074848867    0.545198952    0.644941754
       0.461172756    0.832389423    0.495995414
       0.891555265    0.932926591    0.454463482
       0.848457594    0.791123741    0.693597932
       0.281277405    0.679002180    0.608536278
       0.790571377    0.889605923    0.867549413
       0.120587218    0.828540165    0.889805796
       0.611880337    0.282653874    0.963207580
       0.020912169    0.615892972    0.050028783
       0.860891950    0.185843267    0.868962439
       0.341531424    0.822617615    0.786050366
       0.688702102    0.186733283    0.674054875
       0.030745145    0.996435023    0.665649426
       0.613463300    0.043137598    0.513298995
       0.849766130    0.768381343    0.294007571
