system
1.00000000
       8.933251000    0.000000000    0.000000000
      -3.208697775   11.629738646    0.000000000
      -1.427380426   -0.132888936    6.683905384
Al P O
12 12 48 
Direct
       0.312012228    0.822576658    0.245253821
       0.746448726    0.907765741    0.741007401
       0.081564693    0.370968053    0.217475245
       0.485157547    0.415555768    0.710034231
       0.257531920    0.744353654    0.721481307
       0.882535762    0.762972599    0.304649953
       0.540049620    0.544523614    0.178704105
       0.943610684    0.589132152    0.670835112
       0.142709389    0.197159481    0.584075670
       0.767703921    0.215768014    0.167534814
       0.278892061    0.052373284    0.148121756
       0.713296465    0.137500346    0.643686910
       0.151423650    0.628666670    0.328939424
       0.873792095    0.331439198    0.559889171
       0.999120744    0.134466783    0.972879042
       0.237707520    0.494265645    0.869465039
       0.566387008    0.795315106    0.048305493
       0.458911888    0.164745309    0.840594541
       0.800091247    0.009406329    0.375346656
       0.621955494    0.653674546    0.581167670
       0.225103294    0.950665661    0.513580004
       0.403250424    0.306479537    0.307573704
       0.026199508    0.825647296    0.915941776
       0.787488126    0.465739476    0.018844647
       0.432131699    0.744253290    0.877652007
       0.681586193    0.994501249    0.529152743
       0.183325729    0.686226442    0.134777429
       0.861558489    0.452113370    0.545455663
       0.163523829    0.507952847    0.342949707
       0.841970545    0.273895268    0.754120851
       0.368315952    0.564436747    0.025932290
       0.025222663    0.317585727    0.499516591
       0.076298125    0.055361952    0.114353929
       0.299505999    0.436428684    0.721313485
       0.964134000    0.219310200    0.114968057
       0.792147621    0.662469406    0.537551769
       0.118778538    0.410400799    0.968811240
       0.734122781    0.241468888    0.414609375
       0.500382842    0.846390763    0.201298779
       0.371423695    0.252522852    0.734229381
       0.653926567    0.707515520    0.154347299
       0.524922186    0.113497547    0.687798307
       0.682055916    0.888913819    0.963312745
       0.941792207    0.101263516    0.485862386
       0.820286644    0.892345406    0.349662117
       0.588588256    0.576107995    0.755721487
       0.191604769    0.888838371    0.037733669
       0.524829112    0.367999858    0.487692871
       0.290998980    0.718634501    0.474335446
       0.906521940    0.549506425    0.919507382
       0.833665811    0.071270491    0.851244580
       0.233013900    0.297621040    0.351101073
       0.156541596    0.581297327    0.738756916
       0.107605612    0.193490621    0.838282860
       0.305740215    0.898799124    0.696079125
       0.402308340    0.183070236    0.275375106
       0.204859600    0.067770246    0.538831240
       0.436566222    0.383890902    0.132816903
       0.999939091    0.642478906    0.389266057
       0.656937075    0.395498341    0.862396538
       0.343697879    0.965515831    0.359890209
       0.593151186    0.215864182    0.011204502
       0.917693249    0.766601243    0.050505802
       0.500334505    0.592505605    0.400771738
       0.623114293    0.777053329    0.613899599
       0.719357241    0.061359625    0.193016940
       0.061119348    0.740758057    0.773902287
       0.868647902    0.378776052    0.149836607
       0.948983391    0.904701574    0.774351578
       0.725582789    0.523664466    0.166730150
       0.083381915    0.858799962    0.403162923
       0.343174804    0.071272812    0.925718584
