system
1.00000000
       8.395541000    0.000000000    0.000000000
      -4.067388746    7.804746825    0.000000000
      -0.109286680   -2.091441077   10.683556048
Al P O
12 12 48 
Direct
       0.096943024    0.106425933    0.241841494
       0.643721371    0.201990397    0.276558078
       0.220483222    0.618519318    0.242194250
       0.684575829    0.611525064    0.242587696
       0.163567716    0.980160583    0.899446820
       0.698049573    0.993605242    0.904411086
       0.460396458    0.299338403    0.564297358
       0.061816373    0.334095835    0.493659101
       0.067144719    0.498031797    0.861299414
       0.650577143    0.505852126    0.948650303
       0.636410363    0.889017663    0.627606190
       0.123774953    0.884244854    0.619523714
       0.301114068    0.987348350    0.388602298
       0.777281895    0.981557428    0.374482406
       0.941887268    0.258632519    0.108852736
       0.410531257    0.244277044    0.110668644
       0.383981803    0.542859061    0.434453510
       0.820322204    0.517188583    0.474028030
       0.984015238    0.711127469    0.078273691
       0.433447088    0.698551595    0.028558305
       0.181257315    0.256702804    0.732584149
       0.687514412    0.252524419    0.752018957
       0.338944698    0.788766064    0.759188873
       0.835315809    0.772467301    0.775425905
       0.305315401    0.271579334    0.217858074
       0.852996181    0.304165481    0.218953206
       0.166796576    0.969658145    0.287805582
       0.660814720    0.009671815    0.285840746
       0.480908330    0.164005243    0.396653464
       0.978274963    0.139096145    0.374981334
       0.315050171    0.362337977    0.474400143
       0.874258644    0.373347934    0.480547702
       0.955725423    0.092247656    0.120288886
       0.485649812    0.125477555    0.141227604
       0.126323084    0.415743502    0.119669517
       0.578870531    0.423174353    0.109309029
       0.425328155    0.696585359    0.168585789
       0.798646326    0.706347758    0.103589394
       0.497064436    0.575907311    0.329411538
       0.737077568    0.476932767    0.335734077
       0.468721527    0.683763234    0.545867692
       0.982515445    0.697448051    0.502512692
       0.322699742    0.826153276    0.369659093
       0.808966448    0.826292946    0.334202346
       0.046117418    0.663470701    0.189659208
       0.469020004    0.554561157    0.960197166
       0.105504959    0.883689931    0.041705162
       0.583831943    0.879336505    0.019663777
       0.374833023    0.363161593    0.705476101
       0.874352472    0.396616322    0.745045842
       0.163007646    0.073563947    0.746726742
       0.710662014    0.085312282    0.757068417
       0.297239748    0.189670732    0.987885100
       0.825639662    0.213007605    0.986306831
       0.121546119    0.322017853    0.851440788
       0.598931728    0.292205724    0.865718866
       0.052766027    0.229337657    0.620309612
       0.566632337    0.197265974    0.632587487
       0.190139614    0.508406401    0.385271252
       0.667028072    0.494343505    0.554024751
       0.321254104    0.857028072    0.641139652
       0.879064701    0.930793252    0.882912595
       0.199922800    0.597442800    0.736834550
       0.702304255    0.606321460    0.808615526
       0.246773379    0.662152320    0.976125288
       0.915212616    0.556259517    0.964703940
       0.530256636    0.801623174    0.774545826
       0.808717017    0.828705195    0.654517418
       0.343789991    0.925465152    0.868202893
       0.022703246    0.777004173    0.766822796
       0.235047436    0.036297867    0.515214775
       0.722613843    0.999929969    0.504814919
