system
1.00000000
       8.636208000    0.000000000    0.000000000
      -0.326815274    6.812562441    0.000000000
      -2.576094827   -0.639679380   11.863332611
Al P O
12 12 48 
Direct
       0.753431225    0.149837132    0.261106745
       0.132744667    0.223958937    0.187513691
       0.852536096    0.664757380    0.327028214
       0.241431103    0.655176113    0.220259846
       0.820813743    0.186615552    0.912468060
       0.404716886    0.567316637    0.954777556
       0.545493256    0.155002174    0.563686691
       0.040911286    0.725062566    0.622956978
       0.758665559    0.757530303    0.897874460
       0.319694736    0.078086689    0.902949346
       0.597193215    0.642158601    0.570408209
       0.156235830    0.177359010    0.597332125
       0.079699073    0.935318804    0.367255939
       0.858290988    0.405222168    0.486137351
       0.605419869    0.893755588    0.046365302
       0.897804112    0.440724656    0.123810991
       0.322306149    0.399267173    0.431054045
       0.557014099    0.874036437    0.367471590
       0.439593107    0.331459531    0.119539214
       0.077132656    0.894326517    0.015327751
       0.580504665    0.422437812    0.775971860
       0.843277669    0.962223077    0.689913356
       0.384961905    0.868718728    0.691189884
       0.097092081    0.412546340    0.809200033
       0.079335709    0.469405402    0.124965112
       0.686940071    0.934601584    0.165019331
       0.896536461    0.947225430    0.335911728
       0.826724576    0.375679979    0.356797489
       0.126334589    0.963677609    0.494330862
       0.949755759    0.614689758    0.487966805
       0.157928695    0.076979692    0.303808767
       0.662877978    0.702769880    0.355117309
       0.705229854    0.988079358    0.967714642
       0.836030975    0.610392422    0.180799101
       0.419022359    0.298225620    0.984223039
       0.147616636    0.944050371    0.914276003
       0.187089476    0.830650182    0.117852081
       0.393331471    0.549389708    0.118852556
       0.251661660    0.427005687    0.303281620
       0.395811088    0.822066002    0.294953395
       0.426389457    0.226016303    0.438152147
       0.555795455    0.901014460    0.495555796
       0.095674986    0.721760467    0.324686445
       0.628105134    0.073548638    0.348606901
       0.607514313    0.306270536    0.175232848
       0.943342500    0.735435432    0.983648181
       0.431827228    0.930328027    0.019142998
       0.911066972    0.254255218    0.196107063
       0.541130939    0.787039384    0.684102127
       0.020869063    0.974859580    0.677597533
       0.449155087    0.519869098    0.819171633
       0.970969429    0.294568705    0.850014251
       0.799762608    0.383638052    0.008741188
       0.611459037    0.676546075    0.999006601
       0.530092938    0.397875628    0.646864848
       0.741732837    0.124101463    0.644408358
       0.731414358    0.559393858    0.802683885
       0.833656229    0.949634093    0.815268190
       0.415446979    0.590389674    0.471866492
       0.954571983    0.255490462    0.550148152
       0.247820974    0.723949557    0.642159045
       0.799674543    0.760999171    0.626757874
       0.623179961    0.226891954    0.824611230
       0.205893888    0.260285125    0.763731587
       0.012494598    0.093548631    0.046369377
       0.317632859    0.192958710    0.149314534
       0.390539640    0.918807538    0.814075105
       0.197503789    0.546187772    0.905195821
       0.372671989    0.070219090    0.632600918
       0.022072675    0.538203244    0.715198795
       0.201987572    0.361508571    0.504359272
       0.705540425    0.432920071    0.524228333
