system
1.00000000
       8.106865000    0.000000000    0.000000000
       4.019314909    8.190574648    0.000000000
       0.099141111    2.002146106   10.768019829
Al P O
12 12 48 
Direct
       0.322553397    0.999751991    0.244161659
       0.840846224    0.506626118    0.246314011
       0.230231740    0.529481090    0.226239429
       0.870845401    0.001098612    0.253436024
       0.256058164    0.670295860    0.940193677
       0.744854610    0.193465000    0.911478781
       0.433415907    0.825105148    0.572070227
       0.048450774    0.308889728    0.635125828
       0.327475388    0.219805912    0.890766933
       0.678620509    0.716633207    0.899126575
       0.472953046    0.305905353    0.557031713
       0.997201802    0.851822970    0.559877140
       0.269996815    0.740641171    0.378973905
       0.842837329    0.226656155    0.447069802
       0.014176842    0.266433433    0.070701013
       0.449232598    0.720849024    0.105156559
       0.283186667    0.231961887    0.411467584
       0.776787869    0.754354073    0.416943620
       0.905334338    0.776977707    0.064626111
       0.509191583    0.231163480    0.126369045
       0.237111723    0.998728065    0.787485967
       0.712342230    0.502225244    0.738990004
       0.239818886    0.523911616    0.727606582
       0.711760292    0.000364903    0.739127804
       0.390605698    0.899708994    0.109812111
       0.900282865    0.436120656    0.101450807
       0.102679648    0.849317221    0.292464317
       0.852505063    0.317499579    0.322747678
       0.420709031    0.791537422    0.342657172
       0.999529766    0.192411109    0.538532423
       0.279933156    0.068717417    0.402741983
       0.796277222    0.593663358    0.384070977
       0.085792332    0.126505722    0.186056707
       0.598784877    0.592588471    0.195042180
       0.175761728    0.275297906    0.003610093
       0.491879207    0.679775138    0.969401649
       0.374087484    0.412272055    0.118182072
       0.891300725    0.939611187    0.090877620
       0.164537869    0.370001986    0.303562332
       0.963002116    0.716049480    0.480549167
       0.480903156    0.209440577    0.420192719
       0.630198336    0.823085008    0.508982714
       0.319349042    0.561191261    0.368069498
       0.882706191    0.048801038    0.418647999
       0.716974913    0.792251227    0.026860307
       0.693761077    0.199272745    0.181219456
       0.981239770    0.643369240    0.187922852
       0.531286404    0.204854698    0.983558090
       0.311907870    0.975935425    0.660145488
       0.840576908    0.484936572    0.634140110
       0.187167526    0.863462699    0.843131172
       0.679815189    0.348988982    0.777976188
       0.269701246    0.695282561    0.110776480
       0.903658944    0.219450162    0.989839920
       0.377110047    0.015679808    0.872561127
       0.801378039    0.527605426    0.852213542
       0.064471223    0.164529879    0.771553568
       0.526962797    0.653303363    0.697925869
       0.225496179    0.306700580    0.534156583
       0.736409362    0.888486833    0.301539331
       0.363419640    0.488038855    0.621623973
       0.837520897    0.996133607    0.636869215
       0.186050345    0.375228708    0.756108480
       0.682556231    0.845384501    0.762581538
       0.434561955    0.121155361    0.193119113
       0.028907555    0.695611917    0.965212905
       0.336400611    0.506977853    0.853881850
       0.797611554    0.013634922    0.856430031
       0.077853577    0.692658133    0.701119601
       0.526743705    0.156549824    0.700548216
       0.237219888    0.790969197    0.512726473
       0.667017044    0.326569160    0.506100626
