system
1.00000000
       8.948333000    0.000000000    0.000000000
       4.317571076    7.844655739    0.000000000
      -0.284005861   -0.040411361   10.536572639
Al P O
12 12 48 
Direct
       0.248999912    0.859924500    0.236636690
       0.802265593    0.493063635    0.255497684
       0.238843478    0.361867113    0.236086235
       0.796833780    0.993703240    0.252952353
       0.300465768    0.731527028    0.917899500
       0.760104625    0.334644562    0.914542175
       0.420440982    0.769682327    0.556707050
       0.939314503    0.321275854    0.595040917
       0.297128401    0.230849914    0.916088573
       0.767405659    0.832308690    0.911743017
       0.422516967    0.269794503    0.558486087
       0.938608221    0.824366312    0.593929695
       0.242452663    0.618828496    0.422959236
       0.705312651    0.279384349    0.409111195
       0.068493816    0.205344880    0.102435760
       0.563246919    0.772641102    0.074206184
       0.246633646    0.117109800    0.424455850
       0.705191382    0.780769647    0.409878777
       0.069672158    0.706853784    0.098049978
       0.556055723    0.274591920    0.074565152
       0.193094086    0.028015285    0.758493815
       0.727948887    0.592806572    0.739311876
       0.191259462    0.528751713    0.758021702
       0.727853146    0.093840773    0.740433619
       0.435813446    0.844040250    0.178181876
       0.005608590    0.331123802    0.215053153
       0.300513971    0.661932085    0.302308993
       0.676780906    0.404392111    0.301203889
       0.374061167    0.596827383    0.529232362
       0.748958231    0.345170274    0.529290801
       0.238299067    0.951222369    0.397386528
       0.853045675    0.606549127    0.369232117
       0.091910968    0.036051783    0.145445475
       0.724029104    0.613320066    0.119356973
       0.238617396    0.196604054    0.067061526
       0.619681166    0.901559702    0.034200978
       0.430509557    0.341035931    0.179644971
       0.992614504    0.823541510    0.212062656
       0.303683099    0.160277199    0.303536266
       0.669318302    0.909601726    0.303647249
       0.377346825    0.096421584    0.530892955
       0.747806907    0.846635748    0.530471452
       0.229422843    0.456238534    0.394322684
       0.849597522    0.102247475    0.370629737
       0.101304735    0.531119762    0.130364142
       0.722372212    0.121348476    0.119997899
       0.238123913    0.709871350    0.071576303
       0.602056909    0.409733237    0.029960674
       0.237910453    0.918122369    0.639911696
       0.869936561    0.533548770    0.640913796
       0.154747511    0.936630011    0.864207017
       0.704524019    0.438599298    0.770722313
       0.488413721    0.731575505    0.955215414
       0.952970494    0.280508852    0.988662337
       0.334481795    0.067472398    0.807483500
       0.788993459    0.636761558    0.862742513
       0.037205080    0.200401707    0.730106337
       0.559140365    0.732117936    0.688734579
       0.070854461    0.255492120    0.464942655
       0.553107835    0.752818899    0.430142946
       0.239084336    0.419309707    0.639040118
       0.870273797    0.035396894    0.642477261
       0.151761126    0.435069896    0.861332385
       0.702916715    0.940103895    0.769810983
       0.486179299    0.225764720    0.956474642
       0.964391570    0.780007425    0.978609761
       0.331007569    0.568589695    0.810726350
       0.787698824    0.136880466    0.864726104
       0.036055723    0.700425374    0.727602051
       0.560094401    0.234810778    0.689868830
       0.068516091    0.760329729    0.463419005
       0.548033232    0.260216664    0.429370347
