system
1.00000000
       8.958131000    0.000000000    0.000000000
       0.775363223    6.855665239    0.000000000
       0.529260324   -0.242278118   11.330196986
Al P O
12 12 48 
Direct
       0.092253635    0.755511541    0.206791111
       0.645640667    0.274707994    0.309514102
       0.581342750    0.759483724    0.262300449
       0.008829743    0.189279938    0.215361626
       0.230820701    0.767962932    0.948269933
       0.694527322    0.206654436    0.893158754
       0.906110611    0.753084061    0.605182544
       0.415889330    0.274556354    0.565436856
       0.307549726    0.311960822    0.969931792
       0.757075119    0.768719058    0.861962295
       0.998876167    0.296849776    0.628259986
       0.395422236    0.797135526    0.531380813
       0.854806411    0.520398884    0.358866653
       0.122602613    0.997475889    0.452246392
       0.783018488    0.970165462    0.115783013
       0.993176618    0.475898806    0.010583510
       0.673976219    0.963213523    0.476694693
       0.345076073    0.493241037    0.343395550
       0.536058380    0.561629345    0.024886539
       0.329085748    0.044864596    0.156610408
       0.447480710    0.024121468    0.788485282
       0.199967407    0.563982551    0.702600269
       0.671920430    0.458681169    0.679754324
       0.999384612    0.035796824    0.814765902
       0.924210606    0.365698226    0.111247093
       0.731516267    0.779708634    0.148121637
       0.685513640    0.534837666    0.325150809
       0.090414725    0.966701777    0.319628907
       0.865124939    0.576917292    0.485998538
       0.291754341    0.002791160    0.470569632
       0.946872846    0.632445850    0.279083562
       0.457007784    0.343168231    0.277823384
       0.699196887    0.146430614    0.178387931
       0.437004747    0.970881079    0.247415469
       0.597871197    0.708443137    0.946346415
       0.409565121    0.130701691    0.051929903
       0.203676436    0.210169854    0.195456770
       0.504555596    0.622072503    0.151498836
       0.709568770    0.907107746    0.348248378
       0.221070276    0.574382105    0.268698520
       0.804180791    0.974240419    0.553866487
       0.296841439    0.398876759    0.457037453
       0.876664984    0.291192639    0.333239162
       0.424568627    0.673066069    0.384108249
       0.623732285    0.361047102    0.013221864
       0.245517811    0.873880717    0.107489153
       0.771728020    0.986940817    0.980970690
       0.116190363    0.325775751    0.953757834
       0.735190520    0.658383775    0.704675109
       0.267827192    0.361262234    0.669471347
       0.388944004    0.221980898    0.839393238
       0.885367265    0.212498409    0.846837592
       0.882995405    0.573526308    0.927157731
       0.951350332    0.971336829    0.147315955
       0.621244308    0.999311191    0.811045086
       0.179955155    0.610251057    0.831243713
       0.370126613    0.865231966    0.844794406
       0.034122040    0.546581568    0.659298938
       0.586107318    0.174641251    0.462252183
       0.067421250    0.828312393    0.517240082
       0.801839628    0.317153516    0.629003978
       0.280682037    0.716281827    0.641586826
       0.433612658    0.043403955    0.653835330
       0.911440881    0.867996907    0.766604542
       0.083367664    0.640396594    0.058782290
       0.369677333    0.545701964    0.984232900
       0.617070399    0.389173168    0.797134418
       0.086800584    0.961594545    0.917422683
       0.537834620    0.471309444    0.599294132
       0.091334392    0.103849894    0.710177779
       0.585599186    0.810341396    0.528110696
       0.049818580    0.199861291    0.488595273
