system
1.00000000
      12.559522000    0.000000000    0.000000000
      -5.436042590   12.261786608    0.000000000
      -0.032532024    0.001562676    4.513822499
Al P O
12 12 48 
Direct
       0.403757897    0.936048549    0.923702509
       0.544502130    0.539878383    0.352913865
       0.056945853    0.570347079    0.339054344
       0.902912064    0.857990769    0.935965918
       0.706291785    0.274957254    0.640102123
       0.159866329    0.908105466    0.957938631
       0.801771992    0.522861123    0.326095429
       0.891990173    0.193336711    0.633494260
       0.657396766    0.915914904    0.974861086
       0.129515418    0.243804934    0.643315357
       0.361548065    0.254650656    0.787661213
       0.301431760    0.601640085    0.363876139
       0.830223369    0.963220836    0.459130050
       0.482518495    0.826812655    0.431724229
       0.092404261    0.106330453    0.065973002
       0.558381375    0.329820334    0.231289682
       0.000608729    0.766529206    0.435264249
       0.322343678    0.052234979    0.479440880
       0.124059191    0.366624461    0.222248515
       0.708091542    0.132376100    0.110748994
       0.383113582    0.502302491    0.837341310
       0.732692301    0.631698098    0.852914251
       0.212182119    0.702472423    0.862040477
       0.908259794    0.426999033    0.825231978
       0.484007471    0.262325346    0.978121878
       0.789996550    0.109595973    0.902750197
       0.572679958    0.813595818    0.226058556
       0.412052434    0.879556692    0.268848405
       0.717221697    0.915862388    0.628196462
       0.871941310    0.083919536    0.399976242
       0.956583317    0.637855607    0.460118979
       0.412199056    0.714474143    0.545092933
       0.495434575    0.395159165    0.371816732
       0.577455595    0.256735160    0.464493073
       0.103525688    0.134648656    0.384819058
       0.625541369    0.018400042    0.198872014
       0.679911959    0.408452495    0.129983417
       0.112854333    0.340471655    0.899362530
       0.907834228    0.787967441    0.270434375
       0.309282366    0.006829070    0.155600588
       0.017648565    0.810361472    0.759056704
       0.207703442    0.992952707    0.635757735
       0.347847583    0.175056617    0.466488204
       0.519112484    0.898187694    0.731158164
       0.014306291    0.290797678    0.403141540
       0.220013484    0.342263326    0.376405074
       0.009856135    0.142008175    0.879123137
       0.767754763    0.207968165    0.384095836
       0.402758445    0.543510167    0.165733422
       0.913826574    0.469267879    0.142589601
       0.301697046    0.678419197    0.031904680
       0.695502849    0.560628180    0.559455039
       0.210020635    0.182090900    0.900959339
       0.063976144    0.983871350    0.049068180
       0.633732619    0.609449064    0.067414052
       0.799020728    0.424541345    0.638086281
       0.283420637    0.518056098    0.692646420
       0.824499225    0.600495535    0.994644556
       0.924782139    0.943386363    0.618093036
       0.421497448    0.037906087    0.649307210
       0.361588395    0.382150931    0.846032772
       0.495259456    0.569779426    0.678175443
       0.193291585    0.659537037    0.538741169
       0.779096767    0.749597952    0.764724983
       0.645500512    0.191576341    0.944401396
       0.147940073    0.489097782    0.240895992
       0.254995658    0.830558860    0.834430808
       0.095017802    0.651368692    0.008731271
       0.871636366    0.303704602    0.838064539
       0.016643233    0.483356875    0.659726566
       0.801172644    0.911248097    0.142320950
       0.117162674    0.821804055    0.285251486
