system
1.00000000
       9.014992000    0.000000000    0.000000000
       0.587023291    7.149888451    0.000000000
      -3.752525896   -0.465804362   11.044311841
Al P O
12 12 48 
Direct
       0.967777069    0.083455253    0.334128226
       0.499712848    0.249782379    0.291396125
       0.450190068    0.649314593    0.225907167
       0.921090159    0.613768509    0.201230853
       0.014390409    0.118539712    0.945815898
       0.002320482    0.533606043    0.902373239
       0.239312580    0.203922545    0.532235076
       0.242691446    0.716904482    0.609396598
       0.481356719    0.689235291    0.855599064
       0.452711719    0.122345032    0.922408814
       0.692124050    0.107925713    0.581577837
       0.761425524    0.687875221    0.617779941
       0.954190413    0.481911440    0.467403382
       0.481094189    0.450351470    0.482020800
       0.187371902    0.382168862    0.152440327
       0.277344450    0.826413692    0.994244123
       0.230965333    0.850993642    0.350541177
       0.702680802    0.886972539    0.358929039
       0.811246833    0.834269087    0.016649713
       0.694105721    0.313484513    0.139794963
       0.227728820    0.400335467    0.779529528
       0.013005605    0.978789014    0.683331419
       0.514927486    0.973142394    0.694326894
       0.715244799    0.410014782    0.794410997
       0.430310589    0.743189653    0.080948973
       0.064811301    0.413744624    0.215785226
       0.913240323    0.559506084    0.345368613
       0.567547780    0.600318964    0.564916321
       0.093389406    0.568456064    0.556437549
       0.572907706    0.254746027    0.460359313
       0.272325275    0.747744628    0.466476648
       0.648468895    0.703605282    0.297927232
       0.262248782    0.559554376    0.148408558
       0.753585693    0.479023195    0.100461170
       0.878245742    0.006523775    0.989865593
       0.614164401    0.170969647    0.042350346
       0.565759197    0.387525529    0.198344179
       0.925038318    0.659884946    0.012282766
       0.072363395    0.804520448    0.260282440
       0.604993676    0.041973850    0.280967897
       0.182350657    0.062950366    0.385257232
       0.678146026    0.890802222    0.486096230
       0.363397694    0.850939892    0.299435731
       0.876909191    0.921547669    0.389258484
       0.106281412    0.334121279    0.014500259
       0.830775354    0.208086515    0.227824363
       0.302887999    0.222217761    0.210969321
       0.194319929    0.989614121    0.040757684
       0.682774074    0.925170870    0.690701046
       0.241228986    0.263318799    0.680430854
       0.894052311    0.125426472    0.610102945
       0.794802042    0.584304502    0.770655295
       0.358986147    0.901092269    0.901730787
       0.799921271    0.831969139    0.143625981
       0.332651119    0.329681351    0.903077032
       0.067243854    0.053085749    0.814419428
       0.295331394    0.587680963    0.760946377
       0.149755569    0.942317348    0.629549729
       0.018622849    0.270502373    0.457719853
       0.442599915    0.499372107    0.350008037
       0.442026019    0.790569101    0.705899813
       0.944484415    0.790881282    0.677991167
       0.060056418    0.430227735    0.777614438
       0.585619343    0.470440158    0.847445826
       0.159958373    0.688940404    0.924652110
       0.649575617    0.815327232    0.924709564
       0.518531071    0.106300069    0.798686511
       0.857104687    0.309120631    0.882471565
       0.423156913    0.054899002    0.573705026
       0.652935089    0.293355270    0.679774123
       0.819677309    0.501094464    0.519875404
       0.338588934    0.401166278    0.512527351
