system
1.00000000
       8.648283000    0.000000000    0.000000000
      -4.012596535    7.795303559    0.000000000
       1.345989044   -2.464725652   10.511284466
Al P O
12 12 48 
Direct
       0.149348110    0.237700807    0.313989557
       0.664854947    0.131465336    0.209687837
       0.134948243    0.673048850    0.257522088
       0.719265406    0.654114597    0.221982186
       0.172217586    0.013980807    0.922522420
       0.677256691    0.997549922    0.925052818
       0.565644921    0.319920568    0.584207006
       0.054094588    0.337439242    0.576519713
       0.203486198    0.516972416    0.945986597
       0.638936254    0.494887557    0.927834430
       0.585027207    0.841536410    0.589998648
       0.136640574    0.831087285    0.643253255
       0.290355297    0.025472825    0.408885023
       0.797262042    0.016168488    0.388171500
       0.985234365    0.207834106    0.068380766
       0.445197045    0.272006582    0.121537889
       0.265085182    0.584740202    0.452112908
       0.802908483    0.508178227    0.389956311
       0.988967241    0.708322900    0.039118544
       0.481390836    0.718761715    0.097415872
       0.217206852    0.226561892    0.724894496
       0.740667092    0.230793436    0.746046892
       0.336709090    0.799874482    0.807987320
       0.740321315    0.707159607    0.728666345
       0.338758765    0.330003564    0.225514074
       0.797552447    0.188310519    0.051423334
       0.158280639    0.062684239    0.358469604
       0.654854624    0.040795992    0.340948066
       0.456815153    0.199010181    0.437628262
       0.952720189    0.209723785    0.423407840
       0.255964404    0.409866387    0.471344955
       0.802963378    0.355745829    0.282363274
       0.988983161    0.160166673    0.191515504
       0.484890713    0.138329431    0.157621659
       0.112268536    0.395734722    0.073709526
       0.616081527    0.435981357    0.100596218
       0.613947818    0.906019393    0.085516848
       0.127049441    0.895549152    0.048378818
       0.185608819    0.528448473    0.320515308
       0.669544463    0.563151046    0.358552936
       0.443740209    0.731567022    0.457460901
       0.983070457    0.665859082    0.396627820
       0.314183429    0.881409441    0.307188236
       0.840570263    0.885408626    0.289260937
       0.960008252    0.661065049    0.171961943
       0.524613886    0.679111146    0.210195108
       0.020287213    0.564999830    0.945614513
       0.468916306    0.569983574    0.975647983
       0.402897412    0.342883265    0.691067837
       0.918082269    0.361311289    0.705450589
       0.213719046    0.064333893    0.760394994
       0.742779910    0.065045410    0.769546685
       0.353321275    0.206181228    0.993300108
       0.994198847    0.065446341    0.956850887
       0.152662605    0.314933003    0.841514937
       0.672506275    0.304354631    0.871539436
       0.097041148    0.176529675    0.615996118
       0.614184456    0.171774084    0.636944863
       0.138378464    0.607636728    0.565083076
       0.762536142    0.454637651    0.517669328
       0.412504416    0.861872759    0.685744725
       0.920060133    0.794423249    0.673492075
       0.306796250    0.618071207    0.807689367
       0.705764129    0.534248538    0.763197059
       0.293628937    0.698272120    0.096371711
       0.809213543    0.693942332    0.017772748
       0.449435830    0.939070178    0.917332824
       0.707866157    0.812548624    0.853728720
       0.157262948    0.804152815    0.809884615
       0.607012121    0.671720252    0.631237856
       0.236072874    0.953272211    0.528595810
       0.767539181    0.968735301    0.516183660
