system
1.00000000
       8.763218000    0.000000000    0.000000000
       1.985316915    7.137531742    0.000000000
       2.329492796    1.782890794   11.335123463
Al P O
12 12 48 
Direct
       0.434634082    0.598420883    0.260265479
       0.855924886    0.128881648    0.240312717
       0.358381446    0.012867426    0.175673502
       0.887367036    0.502319037    0.223207905
       0.162803961    0.005669689    0.863943685
       0.766115039    0.120563843    0.890984313
       0.287575396    0.572995733    0.608121840
       0.907782088    0.211365977    0.462455270
       0.270490966    0.580549258    0.936776998
       0.717415881    0.550085212    0.878192411
       0.335466721    0.172157121    0.589439717
       0.867710467    0.721204540    0.545084148
       0.148422431    0.482625107    0.415349803
       0.615582119    0.033694911    0.415558111
       0.111285200    0.772101696    0.145509794
       0.523485600    0.360474788    0.088161105
       0.211635990    0.956235373    0.437154238
       0.647542963    0.653674000    0.412925141
       0.080047067    0.268053770    0.030363811
       0.669989295    0.784767614    0.060174772
       0.973360160    0.767606774    0.764120819
       0.442801340    0.235326136    0.803857996
       0.954669965    0.306876368    0.688193964
       0.468168724    0.768158390    0.718455361
       0.380279695    0.518100994    0.056202963
       0.071424770    0.580349110    0.186339934
       0.055779005    0.343914236    0.405974602
       0.491025497    0.192847041    0.461921882
       0.026529702    0.671221901    0.421953577
       0.759596163    0.968249370    0.483279658
       0.289975147    0.468105687    0.318579604
       0.672332408    0.067714909    0.283781734
       0.149999886    0.798749388    0.006926270
       0.480001459    0.174375444    0.121784091
       0.211916723    0.137403198    0.092002264
       0.808639999    0.629609063    0.093713492
       0.531527662    0.808080976    0.170886022
       0.935700153    0.304004926    0.132247255
       0.822828689    0.304125575    0.333090825
       0.312526645    0.028832406    0.324542527
       0.262395700    0.744511929    0.475217204
       0.734402778    0.577221007    0.518871733
       0.221178955    0.048265550    0.538696352
       0.771212676    0.683375384    0.305552545
       0.259827226    0.788989845    0.195546813
       0.580505785    0.425476390    0.184578281
       0.972313895    0.930486521    0.181591649
       0.667993454    0.341578638    0.982944287
       0.884557467    0.212376100    0.613686457
       0.329306735    0.111723235    0.868174131
       0.147159744    0.657510731    0.732017213
       0.617315295    0.124699609    0.803798526
       0.728084976    0.966710179    0.020058866
       0.118041750    0.452755726    0.970131921
       0.897826841    0.847382910    0.653305512
       0.399161152    0.317682812    0.676013246
       0.969724590    0.941165991    0.826837507
       0.419091841    0.413485315    0.857611480
       0.228187568    0.416137043    0.531596876
       0.540983199    0.856426585    0.436726350
       0.888444475    0.638331646    0.855235541
       0.442085132    0.654072515    0.635569004
       0.832262775    0.322743893    0.804146837
       0.324109546    0.783786994    0.826420120
       0.596589477    0.730963084    0.968086725
       0.021341037    0.166034748    0.953352506
       0.122169646    0.193521790    0.721059679
       0.629308950    0.669578321    0.754622805
       0.956197832    0.508120707    0.638565146
       0.464410719    0.970669302    0.664554319
       0.037701393    0.005483930    0.413274409
       0.529161520    0.554559556    0.391709686
