system
1.00000000
       8.922435000    0.000000000    0.000000000
       0.443067393    6.029963141    0.000000000
       3.181924777   -0.882793148   12.696601650
Al P O
12 12 48 
Direct
       0.404338952    0.257718700    0.244566555
       0.407186807    0.760435070    0.242836808
       0.905422230    0.757705458    0.243968375
       0.904855239    0.257258828    0.243999530
       0.906564522    0.259754401    0.909694263
       0.904560986    0.757941711    0.910789567
       0.405463331    0.758259266    0.577096195
       0.905634397    0.259117199    0.576920706
       0.406229453    0.259589899    0.909974410
       0.405163840    0.758539131    0.910448933
       0.405332591    0.258175634    0.577181775
       0.905842107    0.759266355    0.576876439
       0.590124424    0.507996989    0.368407600
       0.220843168    0.009547122    0.452255865
       0.590634075    0.507730706    0.034979526
       0.720366040    0.008840972    0.119173233
       0.720771300    0.010152575    0.452294815
       0.089954788    0.506891872    0.368614022
       0.220635142    0.009901291    0.118883988
       0.090460363    0.507817610    0.035135109
       0.721007626    0.009647723    0.785561333
       0.090240816    0.507551907    0.701791984
       0.590232776    0.507153007    0.701815345
       0.221008068    0.009865920    0.785561087
       0.541153775    0.040719485    0.153632480
       0.279367705    0.795073588    0.157064442
       0.769136918    0.475182661    0.334585750
       0.287178502    0.992477569    0.330082786
       0.524442681    0.525523858    0.490536475
       0.041849112    0.041981895    0.485888277
       0.031757501    0.722216519    0.330695733
       0.535907499    0.305136250    0.322884205
       0.274933624    0.213182553    0.164170920
       0.024946120    0.525727406    0.157212666
       0.785252498    0.990484043    0.997119613
       0.269485426    0.475681657    0.001129421
       0.779072180    0.794125971    0.157381009
       0.036265707    0.304496593    0.989824859
       0.787115383    0.992410459    0.330092821
       0.268663782    0.473788450    0.335495359
       0.541892910    0.042684534    0.485707852
       0.023565472    0.524623189    0.490814370
       0.035562747    0.304119779    0.323066202
       0.531905774    0.723252740    0.330507767
       0.536167307    0.304302235    0.990047999
       0.774657764    0.212326853    0.164159731
       0.525511313    0.526417463    0.157054523
       0.041708832    0.042122493    0.152628967
       0.032078640    0.722654810    0.663687392
       0.536024317    0.304263449    0.656266384
       0.787062747    0.992268443    0.663425514
       0.042157252    0.042771475    0.818992500
       0.286422552    0.991763678    0.996785905
       0.769701928    0.475591870    0.000869152
       0.542097252    0.042542579    0.819109587
       0.023999215    0.525014305    0.823977908
       0.275348766    0.212769159    0.830987051
       0.269193768    0.474943235    0.668235438
       0.274873592    0.212557565    0.497821836
       0.779096525    0.795066389    0.490355929
       0.036037070    0.304502148    0.656409709
       0.531895099    0.722327357    0.663824447
       0.279210460    0.794635455    0.823517747
       0.779264265    0.794333207    0.823427060
       0.031697936    0.722625204    0.996979922
       0.532027260    0.722499598    0.996718786
       0.775197028    0.212363556    0.831271378
       0.523774537    0.524528930    0.824003913
       0.769075340    0.474513810    0.668456239
       0.287084924    0.992099559    0.663371016
       0.279147814    0.794450443    0.490281871
       0.775077510    0.213177182    0.497627976
