system
1.00000000
       8.763779000    0.000000000    0.000000000
      -0.052827241    6.196092804    0.000000000
       1.382396787    2.585300373   12.693130584
Al P O
12 12 48 
Direct
       0.142414689    0.038845252    0.363240705
       0.600577896    0.078801799    0.284264488
       0.100253223    0.567820883    0.293677912
       0.527710284    0.596576025    0.230318446
       0.327597477    0.689312784    0.978590766
       0.825759293    0.142789797    0.041908542
       0.420411383    0.890144925    0.630487597
       0.882605316    0.494431745    0.538228831
       0.255945665    0.226981044    0.957717584
       0.884542985    0.558570720    0.893265940
       0.421178087    0.411772031    0.622071928
       0.798235463    0.110765226    0.692219282
       0.368489895    0.747117350    0.415022563
       0.655447311    0.212119468    0.490417337
       0.841002536    0.422984710    0.163593464
       0.514684569    0.932607808    0.071686335
       0.163106147    0.246365175    0.511792241
       0.845306370    0.815301268    0.390042726
       0.050319677    0.884361897    0.097365506
       0.326715896    0.338128744    0.174224403
       0.998426257    0.060482172    0.848098362
       0.693773976    0.611792837    0.727921511
       0.186751715    0.591242981    0.768866749
       0.503618909    0.077989567    0.819729975
       0.229736553    0.143296011    0.228948532
       0.772448850    0.181906102    0.183465167
       0.200371359    0.747871064    0.382893090
       0.671776354    0.246053973    0.371960393
       0.368235440    0.693133103    0.536453106
       0.815729254    0.205541104    0.539729991
       0.418470394    0.988154849    0.373834900
       0.921244308    0.585213389    0.381883369
       0.853576042    0.452543775    0.038509159
       0.521670540    0.900121013    0.193640481
       0.084447883    0.136666361    0.056698756
       0.494243523    0.312154415    0.205686692
       0.291261766    0.555063624    0.211238846
       0.879160096    0.869366291    0.085772237
       0.168506591    0.327676097    0.386492089
       0.700100439    0.836710580    0.338076714
       0.321920317    0.236758437    0.548944332
       0.821645685    0.768486633    0.510279036
       0.455129924    0.579316704    0.364560027
       0.947501930    0.018322016    0.348698564
       0.075307381    0.825652505    0.211804651
       0.328016603    0.393264060    0.052895120
       0.917227276    0.840281845    0.895734677
       0.633059778    0.104790916    0.017630473
       0.249250258    0.820683154    0.715000061
       0.781841969    0.436689324    0.673201318
       0.991747547    0.426924188    0.207937419
       0.698798507    0.544787367    0.846279165
       0.353992563    0.992504306    0.043271240
       0.138897020    0.733154900    0.034934342
       0.163981087    0.079798025    0.869602197
       0.439670562    0.845198810    0.866306441
       0.984279146    0.115184185    0.730673855
       0.528651583    0.620216626    0.691496124
       0.069958154    0.414988696    0.558925270
       0.574740890    0.994552276    0.537350115
       0.257436488    0.421464030    0.712145171
       0.770485431    0.833094814    0.687384777
       0.907392418    0.233374904    0.904911957
       0.435383789    0.255671565    0.871928665
       0.524315443    0.693372268    0.055749782
       0.725157147    0.567876398    0.205642405
       0.225024515    0.529551372    0.888392330
       0.676772958    0.089359933    0.812438745
       0.014016395    0.580239271    0.775032051
       0.470098575    0.124145221    0.700828515
       0.111001541    0.010521338    0.514707831
       0.589734414    0.412463528    0.528781348
