system
1.00000000
       9.117071000    0.000000000    0.000000000
      -4.357540413    7.808748488    0.000000000
      -1.090853972   -0.626487852   10.424375933
Al P O
12 12 48 
Direct
       0.208325867    0.186526054    0.247628993
       0.831192988    0.290171324    0.267240490
       0.207662280    0.686433918    0.247593534
       0.831099405    0.790806082    0.267390418
       0.293589231    0.982146455    0.919290199
       0.669935913    0.960235178    0.898928811
       0.477051902    0.297064185    0.519060130
       0.021754404    0.321730883    0.646003383
       0.293809574    0.482389038    0.919315746
       0.670153632    0.460033735    0.899089971
       0.477276530    0.797151324    0.519319802
       0.020434403    0.821157924    0.645841872
       0.204820966    0.960639820    0.412488877
       0.809211969    0.020698355    0.441443321
       0.976694171    0.252476350    0.039138748
       0.524733992    0.280597207    0.127955463
       0.205624684    0.461069283    0.412172159
       0.808998684    0.520604681    0.441033213
       0.976452863    0.752883963    0.039227303
       0.524330493    0.781147484    0.127913422
       0.294941267    0.258005539    0.754229858
       0.690041602    0.211054921    0.725342978
       0.294231192    0.757749323    0.753886967
       0.689412333    0.710770717    0.725562924
       0.386761921    0.310606184    0.174453023
       0.859868661    0.297650492    0.102726984
       0.082851725    0.965625809    0.298168044
       0.857923004    0.113619926    0.317238856
       0.365500877    0.128948032    0.394460748
       0.930809226    0.129923114    0.556163640
       0.230381101    0.309121845    0.388768207
       0.830444925    0.362024582    0.431759598
       0.057620646    0.177105171    0.132577505
       0.617425500    0.242968729    0.240144590
       0.115722984    0.420057273    0.994607308
       0.641055448    0.441018089    0.063586827
       0.386072491    0.810684620    0.174424020
       0.859814256    0.798329187    0.102830917
       0.083312862    0.465164492    0.297743806
       0.858005297    0.614252216    0.317188330
       0.365808682    0.629829139    0.394174408
       0.929912761    0.629311290    0.556204962
       0.228678682    0.808227633    0.388807703
       0.829983299    0.861697330    0.432309833
       0.056945656    0.676900202    0.132479735
       0.617587974    0.744289816    0.240151721
       0.115785775    0.920332970    0.994804928
       0.640056904    0.941540952    0.063263689
       0.348717195    0.315833577    0.624731415
       0.872890560    0.351461634    0.713477209
       0.269500684    0.081694518    0.778976067
       0.670975178    0.032336630    0.735041270
       0.441598886    0.124346782    0.034810411
       0.884810853    0.123346431    0.926242276
       0.417291285    0.384922436    0.868458059
       0.640312862    0.255389322    0.849362927
       0.134562148    0.267354887    0.770633552
       0.568643767    0.197569550    0.610033658
       0.152938982    0.468247019    0.541785689
       0.625325340    0.476370479    0.452948404
       0.348298091    0.815694276    0.624464473
       0.872083231    0.851595543    0.713517593
       0.269050154    0.581487658    0.778783167
       0.671073326    0.532381392    0.735233604
       0.441487586    0.624502482    0.035103491
       0.884575367    0.624079000    0.926164561
       0.416583553    0.884480503    0.868146616
       0.639546743    0.755236696    0.849436315
       0.133818838    0.767048704    0.770216807
       0.567662014    0.696564698    0.610233749
       0.152287276    0.968073576    0.542137204
       0.625716952    0.976856481    0.453718702
