system
1.00000000
       8.880532000    0.000000000    0.000000000
       0.019387968    5.919107248    0.000000000
      -3.579120313    2.897776835   12.580517560
Al P O
12 12 48 
Direct
       0.904174966    0.831642201    0.250803225
       0.909855894    0.340105298    0.238261912
       0.441034512    0.325282912    0.269647758
       0.305685751    0.874988670    0.158819458
       0.818093379    0.037878444    0.832339530
       0.106681873    0.763825242    0.914058254
       0.892691289    0.168117043    0.583238618
       0.378079954    0.661561672    0.570288551
       0.381100656    0.007329820    0.930636056
       0.391668380    0.498063691    0.928746847
       0.892407973    0.669561009    0.578624100
       0.379426925    0.164718814    0.569057005
       0.729266955    0.030377046    0.371230782
       0.073515300    0.474897547    0.454386485
       0.937732154    0.972242383    0.034336460
       0.689051756    0.218249311    0.045857835
       0.584969177    0.471865452    0.461978844
       0.225669607    0.013573367    0.354914762
       0.182751159    0.406164616    0.114019871
       0.584813073    0.655055261    0.128033456
       0.539788871    0.320922323    0.786249536
       0.202723984    0.859089447    0.700106403
       0.681703446    0.839056303    0.691291233
       0.067262167    0.341264143    0.798131593
       0.537464394    0.414329208    0.162809424
       0.014982047    0.857128700    0.149173525
       0.553069192    0.059015210    0.335300370
       0.018334834    0.540968787    0.328680909
       0.792431781    0.966308379    0.496995013
       0.256126876    0.452941384    0.495016168
       0.798492928    0.255852394    0.333188721
       0.280398505    0.839629662    0.302730087
       0.244110765    0.916924540    0.006262186
       0.781453153    0.130351776    0.165176811
       0.211259037    0.495639110    0.001877068
       0.745701048    0.002809047    0.005336450
       0.514673240    0.844196663    0.165471983
       0.282113350    0.567431557    0.179530483
       0.549018784    0.516965687    0.342976897
       0.040555672    0.044217244    0.313069348
       0.768481482    0.445394716    0.514504631
       0.272062249    0.942859021    0.480426440
       0.784104434    0.825612649    0.336293824
       0.283863145    0.252977445    0.333540542
       0.288262769    0.180146101    0.154653015
       0.768853419    0.640495443    0.169748861
       0.989613154    0.198805919    0.992627455
       0.730447518    0.449053646    0.004510532
       0.765566860    0.071916847    0.672484463
       0.258881998    0.661615377    0.663833352
       0.486164730    0.086057637    0.832109997
       0.008792891    0.547534770    0.829324208
       0.502310130    0.208159159    0.009998268
       0.938024501    0.802276030    0.960095364
       0.718554587    0.302536811    0.812937898
       0.254986334    0.796908436    0.831490246
       0.473513616    0.374242199    0.662822031
       0.020370737    0.881763352    0.659728998
       0.516459524    0.668457688    0.493964193
       0.021819506    0.242732724    0.498582015
       0.756713805    0.655388777    0.656901100
       0.261926256    0.088560004    0.662487138
       0.488221627    0.516511505    0.828005940
       0.015156669    0.085685017    0.824549763
       0.504304806    0.717778457    0.000361155
       0.028906231    0.400819762    0.141222200
       0.708071615    0.797026949    0.810351223
       0.247299230    0.300882155    0.851336437
       0.503848693    0.878028959    0.637818803
       0.006884283    0.384540293    0.673819744
       0.526431450    0.239495110    0.503648595
       0.019845809    0.671456207    0.494233094
