system
1.00000000
       8.660093000    0.000000000    0.000000000
      -4.059900648    7.520140901    0.000000000
      -1.385057370   -0.853931439   10.804227664
Al P O
12 12 48 
Direct
       0.200084258    0.079357832    0.273057007
       0.211140523    0.576469843    0.286804051
       0.638485839    0.419945871    0.209023111
       0.654327223    0.866089987    0.245213210
       0.984495701    0.911566693    0.885307936
       0.993948097    0.347145982    0.897046070
       0.297116179    0.856114904    0.532005653
       0.275016314    0.343327314    0.547590747
       0.505329055    0.295947092    0.938684234
       0.495548214    0.823372144    0.926027190
       0.861103827    0.333610968    0.599796777
       0.856759413    0.764661351    0.626692819
       0.975326808    0.730641232    0.370309638
       0.983245551    0.230706052    0.374019305
       0.259985090    0.348542452    0.097240994
       0.290773738    0.830616474    0.142370921
       0.505555343    0.234345272    0.442228637
       0.530444516    0.705616561    0.481536238
       0.728715720    0.678801502    0.044431183
       0.721277493    0.164946037    0.071380848
       0.239595268    0.057901399    0.726052352
       0.227864208    0.569654673    0.714415773
       0.776954675    0.519006276    0.787738208
       0.762473885    0.022936620    0.740665433
       0.430909881    0.830347181    0.249674050
       0.205611873    0.392916543    0.969903676
       0.999641434    0.874140631    0.283060596
       0.012077036    0.375624293    0.289558660
       0.149237853    0.711453340    0.388526328
       0.149173843    0.198952025    0.392030929
       0.345651695    0.039762512    0.420272228
       0.338825256    0.544279263    0.436739019
       0.325966688    0.502092049    0.194103037
       0.122382187    0.658509636    0.154694403
       0.428843486    0.329516312    0.080127642
       0.349715402    0.832726669    0.019952922
       0.681641514    0.688904271    0.173925304
       0.573156489    0.664001119    0.954185033
       0.475343129    0.304287891    0.315137580
       0.639189361    0.745811530    0.377937407
       0.685744523    0.245643198    0.469175444
       0.625316624    0.647506859    0.579529184
       0.819976507    0.549411085    0.329568877
       0.817376589    0.062673459    0.333394859
       0.912972806    0.826777159    0.025483187
       0.689056286    0.970753327    0.089832973
       0.584771425    0.136740317    0.954983912
       0.902204513    0.281635585    0.038521464
       0.362734428    0.007256870    0.671599968
       0.350483614    0.502897539    0.679410368
       0.069527181    0.880354590    0.746162374
       0.053590819    0.398220666    0.736685176
       0.280799039    0.999393868    0.161087347
       0.126781956    0.176460721    0.143692690
       0.286202764    0.134197639    0.863532276
       0.291578404    0.688070940    0.830099032
       0.178106088    0.160930345    0.642350683
       0.171782046    0.656122700    0.609291398
       0.470737662    0.325867159    0.544174410
       0.500602174    0.858108161    0.525401543
       0.825456965    0.517148884    0.654125621
       0.742033438    0.185624159    0.710477481
       0.588750412    0.386497812    0.801349826
       0.603915524    0.890163023    0.792511486
       0.675428399    0.232477160    0.182023751
       0.723008137    0.494237775    0.044802749
       0.917698945    0.510422849    0.879743480
       0.829396990    0.965789007    0.637326860
       0.795774950    0.708551476    0.798402388
       0.925225827    0.088157215    0.853759830
       0.981677482    0.801594475    0.502184316
       0.008095663    0.305370531    0.509691040
