system
1.00000000
       8.148526000    0.000000000    0.000000000
      -3.973346903    8.375580344    0.000000000
       0.191986854    0.498581726   10.655754579
Al P O
12 12 48 
Direct
       0.211840006    0.254313322    0.287826296
       0.809489450    0.297288305    0.226900763
       0.265278720    0.702598264    0.244757917
       0.707168022    0.718325703    0.262983227
       0.277912165    0.966620724    0.976401012
       0.843034601    0.053557316    0.924696300
       0.437601097    0.241181809    0.560649423
       0.989861666    0.199773413    0.592101190
       0.396308967    0.519563069    0.887913926
       0.780092102    0.518950611    0.858388223
       0.479138611    0.812532305    0.564120864
       0.032810226    0.775799400    0.589032153
       0.280301699    0.990505865    0.386220665
       0.798496367    0.018911741    0.365590174
       0.048445526    0.312941230    0.058019451
       0.497329417    0.314284764    0.085059665
       0.273784943    0.483058458    0.470159600
       0.781150356    0.492949641    0.449284721
       0.960945606    0.694444898    0.085600899
       0.527959224    0.810365415    0.071235002
       0.194527475    0.183096973    0.777779695
       0.675366578    0.191172143    0.742807513
       0.209341161    0.713601328    0.768999281
       0.733514879    0.794080800    0.746457871
       0.352818308    0.349882243    0.152794949
       0.857104205    0.303746949    0.048562151
       0.243556405    0.077406395    0.274240567
       0.709497364    0.094444695    0.279485303
       0.445972711    0.105023459    0.454444151
       0.973134143    0.144099142    0.425881744
       0.332128175    0.346582415    0.429441599
       0.826867029    0.377113737    0.377135223
       0.045226171    0.301583109    0.208735022
       0.631201739    0.340899439    0.186940490
       0.199587012    0.460810705    0.000709547
       0.572921997    0.439041209    0.971739104
       0.364402657    0.850115039    0.096139459
       0.769892534    0.666184286    0.125058464
       0.222083744    0.533832453    0.346897833
       0.689342764    0.578730453    0.373754006
       0.434020439    0.617190131    0.523951092
       0.959850414    0.613083433    0.496191859
       0.323891257    0.850142486    0.355091316
       0.860611609    0.909877307    0.294856038
       0.041577211    0.624677979    0.189136579
       0.501552978    0.717829280    0.206114303
       0.072065743    0.873281466    0.065417003
       0.706866024    0.953215508    0.064106563
       0.202858915    0.169039098    0.628995593
       0.764487487    0.159403954    0.624424280
       0.191929430    0.040601502    0.846075160
       0.660044240    0.080143524    0.855843694
       0.430085098    0.150356502    0.032179836
       0.046686083    0.158275616    0.012261720
       0.342534164    0.341409327    0.806512018
       0.787897418    0.361659203    0.781890489
       0.002420877    0.181654294    0.779253879
       0.485301640    0.160186622    0.703499139
       0.115783579    0.408389843    0.564000837
       0.644162673    0.411822141    0.557922626
       0.271232225    0.804618701    0.630821802
       0.865419206    0.839755445    0.633024524
       0.265460934    0.579786707    0.774773714
       0.646671150    0.609663758    0.780189031
       0.503341902    0.699608223    0.968640835
       0.946890478    0.604058478    0.968341772
       0.290520366    0.828534107    0.868446549
       0.832352548    0.875632187    0.860323027
       0.003998489    0.665463453    0.745970655
       0.579182036    0.834275582    0.709951122
       0.113235596    0.929491302    0.472302237
       0.659543294    0.917133507    0.464377287
