system
1.00000000
       8.520665000    0.000000000    0.000000000
      -3.426997891    7.795628717    0.000000000
      -2.375628221    0.273853047   10.661554688
Al P O
12 12 48 
Direct
       0.186015061    0.018705641    0.237519598
       0.686649564    0.518630287    0.238115132
       0.520223494    0.879388769    0.270465215
       0.019110758    0.378402363    0.269316599
       0.347184430    0.262892494    0.960170838
       0.846946351    0.762179472    0.959751107
       0.111403481    0.816131293    0.628430254
       0.610862656    0.317765449    0.627526346
       0.830142045    0.148865363    0.895192002
       0.330627685    0.649433020    0.895206444
       0.492108025    0.739148378    0.544211952
       0.992192973    0.237235411    0.543705178
       0.183942951    0.703209136    0.393425820
       0.684104859    0.203624817    0.393615780
       0.795679279    0.917223205    0.138721755
       0.296334683    0.418470733    0.138972724
       0.790620826    0.744440037    0.444038345
       0.290507468    0.244739222    0.443083592
       0.270269971    0.900177559    0.037523408
       0.771335717    0.399990609    0.036761695
       0.985365589    0.464472247    0.730893284
       0.484789311    0.966465001    0.731044796
       0.465627509    0.497625589    0.753429601
       0.964927819    0.996714940    0.752455024
       0.147403592    0.470327741    0.146007017
       0.646250062    0.968377044    0.146074395
       0.104035508    0.791455146    0.288085138
       0.604398401    0.290280718    0.286775860
       0.296024500    0.087809629    0.391014760
       0.794884330    0.586758458    0.391910262
       0.975680982    0.869086212    0.491377402
       0.475018489    0.370892183    0.490371843
       0.968875448    0.018393385    0.221806886
       0.469408936    0.517956106    0.222757863
       0.836708711    0.263725008    0.022084833
       0.334713803    0.764041133    0.021031190
       0.577459000    0.341512386    0.032362004
       0.076829833    0.842517569    0.035171688
       0.698198151    0.815745243    0.330648664
       0.196567056    0.314607760    0.329642513
       0.574388430    0.014593841    0.398642194
       0.073790321    0.514226109    0.396789483
       0.371457007    0.717185117    0.375196473
       0.871235746    0.216479659    0.375321366
       0.352587470    0.956541818    0.178397706
       0.851928063    0.456217774    0.177754668
       0.254051015    0.218742835    0.126712846
       0.754796890    0.717998000    0.127582801
       0.944428185    0.614852997    0.664994841
       0.443550883    0.115750620    0.663308985
       0.064440145    0.403769933    0.644978271
       0.565021420    0.904703494    0.646547481
       0.334535654    0.462905442    0.003197350
       0.831710291    0.960843489    0.002281535
       0.106485371    0.520040393    0.854721996
       0.604788511    0.023672283    0.854892637
       0.816496850    0.312605766    0.760561880
       0.316486650    0.813485926    0.760925865
       0.680473115    0.705864741    0.543693161
       0.180728311    0.205175548    0.543083685
       0.381118182    0.558776729    0.630997832
       0.879601368    0.057316789    0.629848965
       0.619364251    0.463935340    0.734583415
       0.119141131    0.964477971    0.733560204
       0.835942297    0.553341716    0.951437911
       0.333301213    0.053170289    0.951682725
       0.523298305    0.639208032    0.853163196
       0.022030426    0.138582453    0.852034122
       0.334138353    0.332967513    0.801967456
       0.834499660    0.832128389    0.801521341
       0.232696731    0.774260441    0.524835751
       0.732298993    0.276801677    0.523939359
