system
1.00000000
       9.112865000    0.000000000    0.000000000
       3.145048591    6.912725073    0.000000000
      -2.072516314    4.209182696   11.221424075
Al P O
12 12 48 
Direct
       0.533323444    0.159841418    0.241728589
       0.903815409    0.633253973    0.167206808
       0.549543604    0.759621042    0.233475610
       0.998904376    0.151767262    0.244391528
       0.068524267    0.306081220    0.879694859
       0.576244777    0.803543335    0.844951412
       0.972815721    0.962989515    0.552251301
       0.351988692    0.586790975    0.528373007
       0.912406293    0.987179979    0.973854365
       0.371106178    0.529263202    0.912168692
       0.900819545    0.382443644    0.594497102
       0.429255729    0.147104968    0.581385012
       0.553754923    0.813955315    0.475476344
       0.078087767    0.271669471    0.415505342
       0.198665959    0.429109895    0.075958564
       0.584059389    0.041773467    0.019648041
       0.615980855    0.332048742    0.427409470
       0.966530703    0.799027000    0.357964534
       0.184036877    0.926107129    0.117559644
       0.666544768    0.462495280    0.097000937
       0.881690979    0.803843192    0.789707377
       0.192253916    0.504589707    0.677133154
       0.693829769    0.400851285    0.767421670
       0.230336103    0.997605179    0.749103780
       0.558336193    0.994927347    0.146132771
       0.312131762    0.315712338    0.206096758
       0.541171200    0.904030297    0.339138693
       0.967522674    0.417260112    0.464095204
       0.709143248    0.609699688    0.528560290
       0.023132365    0.360890759    0.275668849
       0.628868599    0.172850880    0.372817335
       0.041980578    0.085986375    0.424422223
       0.365236950    0.813153968    0.119927847
       0.696638445    0.614643689    0.155854670
       0.083352643    0.807357755    0.126765152
       0.550281418    0.597487298    0.968381441
       0.584703593    0.357479364    0.163084928
       0.186153357    0.022524599    0.213918273
       0.475310541    0.357894911    0.487958336
       0.890690614    0.013589916    0.259804706
       0.788902219    0.236455737    0.523969978
       0.160604072    0.674897587    0.394599921
       0.570573941    0.539454928    0.340323540
       0.261182480    0.205265322    0.459668850
       0.258866832    0.575093645    0.014319654
       0.842428197    0.318725625    0.096624704
       0.219821984    0.274577973    0.011406028
       0.781679913    0.907147653    0.050721796
       0.870890609    0.327129371    0.744394997
       0.315469517    0.365224767    0.624104519
       0.647053123    0.599631570    0.791790763
       0.201743223    0.124561284    0.826980575
       0.514453321    0.957120552    0.938542193
       0.058389316    0.095947917    0.990491542
       0.942224453    0.573522415    0.845334467
       0.264114892    0.451705958    0.808609728
       0.691773899    0.920659106    0.781399357
       0.035059548    0.484518413    0.654563930
       0.393364957    0.794010923    0.473189080
       0.903557337    0.834396692    0.462028350
       0.908473802    0.858547583    0.670870316
       0.189131510    0.711853062    0.608874533
       0.975697841    0.873698083    0.870582738
       0.074627646    0.092310922    0.640306765
       0.525166076    0.265879671    0.978640953
       0.012445028    0.543908508    0.070243152
       0.732964032    0.223443183    0.877927851
       0.279383237    0.778083240    0.809460438
       0.551594773    0.439617203    0.665888575
       0.388612097    0.986613869    0.709197958
       0.571335810    0.947877011    0.545263601
       0.878298032    0.706745009    0.290332032
