system
1.00000000
       9.183618000    0.000000000    0.000000000
       4.243027933    7.979046652    0.000000000
       0.233137339    0.229933231   10.335886406
Al P O
12 12 48 
Direct
       0.333058249    0.696236989    0.232744756
       0.220015297    0.307769464    0.262363373
       0.749688361    0.741068735    0.253835436
       0.676873898    0.296460371    0.243996475
       0.965925846    0.708240868    0.937759809
       0.007526044    0.179018183    0.974119459
       0.261405777    0.495329842    0.611323005
       0.220269689    0.000129841    0.542188444
       0.454704303    0.791921399    0.880386505
       0.530494903    0.219183890    0.888190986
       0.817616874    0.505522529    0.601923385
       0.775164594    0.015694209    0.569778612
       0.034252104    0.744668511    0.385517116
       0.967982598    0.273815417    0.383271832
       0.320881469    0.996943060    0.112068341
       0.277736361    0.505213422    0.062499612
       0.527192759    0.672391993    0.457288790
       0.469527741    0.218556211    0.444916401
       0.764781764    0.995231387    0.096782526
       0.699143291    0.529061767    0.053807328
       0.184507606    0.782729217    0.746916777
       0.219005135    0.245576152    0.761812849
       0.718438537    0.802618129    0.739787957
       0.804764032    0.243997457    0.753426010
       0.292735964    0.666602516    0.067180702
       0.329252136    0.152059815    0.153889184
       0.134046311    0.800102801    0.297473349
       0.017305146    0.336329648    0.258038885
       0.140214202    0.610666560    0.484131875
       0.095236647    0.092909396    0.409689185
       0.436674267    0.599693347    0.379763870
       0.300593878    0.229366636    0.417538355
       0.394658298    0.855253504    0.214052235
       0.254524135    0.473043399    0.207534278
       0.428913658    0.940400909    0.991514900
       0.433491643    0.362524291    0.010700552
       0.748655358    0.655757117    0.104567881
       0.797034969    0.140256364    0.134507810
       0.669567201    0.671115329    0.377031994
       0.527035410    0.260220557    0.316340767
       0.609872578    0.556874394    0.573041339
       0.591906967    0.045920214    0.493345438
       0.950212398    0.665837255    0.307639852
       0.798623831    0.285713354    0.370875798
       0.682198683    0.951857533    0.211536137
       0.600331270    0.492867448    0.164219709
       0.929762942    0.844756970    0.064120250
       0.854177751    0.371891023    0.024733803
       0.321105035    0.604614813    0.717402615
       0.212510042    0.130942974    0.661652742
       0.036398960    0.771675474    0.801137203
       0.138365749    0.237736727    0.888063095
       0.129140523    0.519647186    0.989599200
       0.140801541    0.036792848    0.088945971
       0.249571460    0.859872501    0.843345025
       0.399987241    0.193127099    0.786684809
       0.133041948    0.885589121    0.621473455
       0.140763308    0.425618764    0.704106147
       0.414020262    0.852075424    0.494271315
       0.447415480    0.343495974    0.548846797
       0.812911034    0.699162374    0.622189150
       0.825424153    0.170787509    0.618177717
       0.541524455    0.831192362    0.740727570
       0.626726896    0.312379939    0.797671661
       0.586704938    0.592381264    0.937973891
       0.659400825    0.042545751    0.977074296
       0.798437433    0.707061787    0.864654389
       0.917027840    0.113813413    0.854498872
       0.726076337    0.967238717    0.726289695
       0.851735231    0.385608108    0.744013180
       0.906460298    0.902332099    0.449152195
       0.966148709    0.384995294    0.491725936
