system
1.00000000
       8.407346000    0.000000000    0.000000000
       4.077254540    8.096502760    0.000000000
      -0.153779894    0.348257705   10.544628939
Al P O
12 12 48 
Direct
       0.910492870    0.276261291    0.250832538
       0.459336456    0.320544917    0.231695366
       0.523490316    0.717798605    0.246980979
       0.964195053    0.668589941    0.297082557
       0.298107386    0.956497810    0.981748006
       0.906853383    0.987871671    0.970474224
       0.375014191    0.121012319    0.600264216
       0.812712092    0.241253558    0.555213491
       0.767526330    0.530605844    0.846084535
       0.307284571    0.458742788    0.898862661
       0.725711655    0.842668436    0.593807711
       0.183113539    0.773972355    0.568439946
       0.243811587    0.001808274    0.371970707
       0.749396512    0.037920970    0.359659372
       0.676211514    0.323882196    0.059470812
       0.169262444    0.304509134    0.087143428
       0.783236008    0.538258947    0.442456906
       0.315869785    0.460257384    0.480910797
       0.217356288    0.701633718    0.103576580
       0.703763553    0.777791989    0.063646916
       0.061328040    0.172304891    0.765630756
       0.613326865    0.185844471    0.757340145
       0.445115362    0.788307927    0.735039164
       0.990349152    0.713407649    0.761254291
       0.978887207    0.339940333    0.111262866
       0.493464961    0.321355060    0.058907816
       0.107837805    0.092859270    0.267240185
       0.612472492    0.110486015    0.254390209
       0.247223141    0.123369668    0.466504388
       0.821546475    0.171114961    0.395638891
       0.923676325    0.441043373    0.343174585
       0.463612774    0.373056739    0.388495531
       0.672753173    0.394363014    0.195780904
       0.242784614    0.342883894    0.210528421
       0.677912762    0.427466838    0.949542790
       0.151350575    0.418767870    0.975268365
       0.502436766    0.809349626    0.080231048
       0.065697366    0.667371890    0.145888363
       0.597923094    0.593815873    0.388636879
       0.140623547    0.576266252    0.410328428
       0.811506295    0.691322022    0.467170913
       0.359286882    0.578037283    0.557769378
       0.427330156    0.910133398    0.317580963
       0.906367854    0.882778314    0.323039671
       0.354265404    0.652503838    0.213029588
       0.754108482    0.708518425    0.206501115
       0.140789685    0.889943609    0.068529687
       0.733815874    0.926091977    0.038316806
       0.243403848    0.150690123    0.732674902
       0.631246449    0.284882219    0.645297601
       0.086507786    0.061554718    0.886295566
       0.768779866    0.123998359    0.847230078
       0.296768969    0.127694630    0.053352486
       0.834065901    0.152972859    0.080458254
       0.941048856    0.350270082    0.792846514
       0.444404044    0.288388901    0.821235194
       0.990224907    0.110435095    0.652960662
       0.593696354    0.038706243    0.698996053
       0.823356521    0.428509012    0.559166622
       0.299490324    0.335513473    0.568835183
       0.497858937    0.858939907    0.611982718
       0.965950103    0.814251405    0.629245792
       0.569473845    0.605627448    0.749842649
       0.163624045    0.560313743    0.761636330
       0.795392528    0.642452126    0.973193959
       0.309040302    0.624822513    0.981027937
       0.451479303    0.876822041    0.854330121
       0.978596767    0.813413078    0.872938442
       0.253314500    0.823630284    0.710622566
       0.823774374    0.684283756    0.736139377
       0.185109980    0.882756776    0.435962199
       0.663082653    0.014164949    0.480213908
