system
1.00000000
       9.030061000    0.000000000    0.000000000
       0.071640292    6.766992793    0.000000000
       1.279679486   -0.157765175   11.903405972
Al P O
12 12 48 
Direct
       0.004020014    0.172439258    0.226497794
       0.382903106    0.279388420    0.262758517
       0.577514559    0.774469069    0.237079982
       0.036759365    0.670392028    0.246656941
       0.731593501    0.184050474    0.946520621
       0.293743511    0.603539633    0.843711880
       0.647914752    0.116996819    0.573122699
       0.192356735    0.703700529    0.581557894
       0.767923424    0.686852666    0.906608179
       0.228451692    0.116336161    0.947218600
       0.724380497    0.551407273    0.545163967
       0.107918379    0.145453593    0.614634588
       0.283073111    0.897682903    0.355264790
       0.012619201    0.404614603    0.443527263
       0.471831950    0.874126561    0.009235775
       0.682291900    0.346823140    0.175599604
       0.442312989    0.440850354    0.482729581
       0.810339585    0.912594299    0.358269828
       0.215814641    0.421813100    0.084151033
       0.967299500    0.894809811    0.035930465
       0.580329011    0.409516572    0.774646247
       0.875018194    0.876999333    0.685055079
       0.371720156    0.985672914    0.713383112
       0.018047289    0.380470642    0.814765119
       0.839017014    0.290229711    0.193747156
       0.493035547    0.767728826    0.116717884
       0.200535195    0.744169260    0.296160229
       0.049981604    0.407761664    0.311229399
       0.240694476    0.895397175    0.482122013
       0.060412660    0.591943544    0.498886538
       0.250066404    0.095940668    0.297181574
       0.882338829    0.704579230    0.351727566
       0.634661838    0.919891623    0.955741328
       0.648058200    0.538524858    0.240173075
       0.273477230    0.399968702    0.959939403
       0.119366474    0.888582891    0.966971796
       0.999733461    0.910681945    0.162660762
       0.100116340    0.581114630    0.110314329
       0.376574320    0.449585301    0.371059297
       0.728354340    0.923447307    0.253840859
       0.515860671    0.237769938    0.491394741
       0.709464767    0.937677080    0.466285616
       0.449140812    0.862820346    0.341718167
       0.937001864    0.058725045    0.354004708
       0.341552025    0.434756107    0.156029328
       0.869090560    0.713790302    0.024323478
       0.380769644    0.061725820    0.036766384
       0.563858156    0.197311094    0.221845863
       0.530466017    0.960318288    0.660355159
       0.046688195    0.892520841    0.645257929
       0.416263198    0.434963394    0.767775096
       0.862173840    0.414425736    0.880363185
       0.665151596    0.366562370    0.049249177
       0.396697325    0.732075055    0.936019565
       0.653059784    0.373293411    0.650724864
       0.813728505    0.067865658    0.645076692
       0.637600689    0.599302924    0.821435722
       0.862550499    0.856554002    0.811083085
       0.562783191    0.601425294    0.484882952
       0.096970616    0.228477321    0.481767656
       0.294472686    0.778313713    0.712163207
       0.816500781    0.697702577    0.630985157
       0.622194090    0.228810424    0.837502767
       0.089743026    0.199210554    0.857955381
       0.880182786    0.078798383    0.009089648
       0.131106750    0.222936389    0.102094913
       0.362223105    0.052994613    0.833008907
       0.104059515    0.571415774    0.824438917
       0.287322483    0.130594498    0.648049079
       0.007473526    0.341700011    0.689450305
       0.314469248    0.493739029    0.572173313
       0.842959674    0.377173783    0.471247495
