system
1.00000000
       8.740083000    0.000000000    0.000000000
      -0.019494126    6.196202334    0.000000000
      -0.391339667    0.333712580   13.202408276
Al P O
12 12 48 
Direct
       0.073643649    0.058506744    0.326981412
       0.554259908    0.556539341    0.281474487
       0.049097580    0.501363645    0.265138297
       0.592666413    0.082890136    0.326237254
       0.262441191    0.891531175    0.935281547
       0.775623858    0.402664436    0.965845975
       0.464675156    0.005070647    0.630114791
       0.936314611    0.562101380    0.600883547
       0.289692721    0.387383724    0.976886097
       0.763312425    0.903668088    0.938288667
       0.432344569    0.541004758    0.605487618
       0.961665253    0.056594791    0.639708913
       0.340955339    0.812257306    0.416531108
       0.684190116    0.280064842    0.516858265
       0.794560499    0.248262229    0.181314540
       0.529986371    0.681613468    0.060607035
       0.174344782    0.305197531    0.503175687
       0.833212110    0.774862650    0.400692720
       0.030705902    0.671865942    0.056047009
       0.310080959    0.248803499    0.193792355
       0.017233801    0.187452983    0.851013512
       0.718700434    0.747165616    0.731941198
       0.208547701    0.756398262    0.724737718
       0.509124959    0.182919386    0.841370715
       0.218117136    0.054539494    0.230521914
       0.722631250    0.456310404    0.214903966
       0.170349062    0.847240092    0.399261757
       0.674252226    0.305124458    0.399743998
       0.379115188    0.785317848    0.532583733
       0.851378330    0.283159423    0.562817703
       0.425811426    0.013371874    0.385670297
       0.932186027    0.613092568    0.352760399
       0.955491484    0.245395004    0.239812921
       0.485166438    0.696334883    0.170228824
       0.126367289    0.869111810    0.033218515
       0.607770978    0.476166422    0.029200636
       0.224806261    0.458141438    0.209495129
       0.699784654    0.056203637    0.215822814
       0.142771543    0.303514805    0.386318531
       0.666262554    0.772413857    0.354497990
       0.345658811    0.308256433    0.536191740
       0.831689034    0.730321300    0.513822675
       0.395327466    0.614265280    0.363803759
       0.891483604    0.003105318    0.382777520
       0.984168474    0.677200954    0.165891045
       0.462180949    0.285446818    0.257551571
       0.112030359    0.469733128    0.024621418
       0.624832473    0.877023136    0.033179417
       0.294013626    0.961015124    0.696265908
       0.812668746    0.555192946    0.703597904
       0.935695154    0.981716730    0.881734357
       0.422988199    0.376248046    0.876302880
       0.373424791    0.668451148    0.998202650
       0.834890494    0.225047204    0.070440056
       0.177754938    0.171008165    0.907733386
       0.689033837    0.724629170    0.844959383
       0.047580278    0.207814371    0.737951239
       0.556346091    0.751407510    0.679379258
       0.103792236    0.511208068    0.537240257
       0.611970239    0.065919266    0.543425752
       0.290081188    0.551878113    0.696348430
       0.793282098    0.958893996    0.698544453
       0.926369321    0.379330644    0.879569254
       0.434612834    0.974871317    0.877359893
       0.353311697    0.219888327    0.083418224
       0.873008179    0.669799930    0.996134668
       0.176793677    0.737177885    0.836896014
       0.672659731    0.177175908    0.895489382
       0.051307553    0.780742012    0.664527182
       0.529048821    0.200337048    0.726254182
       0.103214612    0.103725477    0.547518743
       0.607467106    0.470998810    0.559103829
