system
1.00000000
       9.150461000    0.000000000    0.000000000
       0.114718338    5.889446828    0.000000000
       1.646076424   -0.396828823   13.037093779
Al P O
12 12 48 
Direct
       0.147749122    0.972811808    0.313142453
       0.632927620    0.466680737    0.297060562
       0.099155492    0.467324067    0.253292441
       0.631566362    0.968882629    0.299105086
       0.167331360    0.110944584    0.828517020
       0.838857838    0.470656732    0.006867780
       0.412283767    0.996254397    0.609652815
       0.907121151    0.506449234    0.610746762
       0.335089097    0.462987555    0.018953195
       0.664192754    0.992138627    0.922717285
       0.412583965    0.509879799    0.624852472
       0.903750902    0.004290135    0.609807854
       0.376935058    0.726608679    0.414613249
       0.668292473    0.249647044    0.502664791
       0.882179855    0.192545395    0.171686815
       0.570776103    0.697987440    0.099575900
       0.172378355    0.243463581    0.509776239
       0.884960172    0.729502808    0.402359950
       0.080755052    0.727127415    0.070976325
       0.383153812    0.205432331    0.189209828
       0.894373104    0.287010762    0.823765533
       0.647858776    0.773443009    0.727039217
       0.137697729    0.758563657    0.731835300
       0.446263145    0.310139606    0.837168361
       0.307863467    0.990907319    0.223800803
       0.806085108    0.416220709    0.214755161
       0.223250022    0.738680865    0.381313973
       0.688905466    0.229522616    0.382821797
       0.356023636    0.739484667    0.536887232
       0.826424503    0.252092258    0.537532713
       0.465233944    0.934330811    0.384284508
       0.971530553    0.514395335    0.366190872
       0.037861460    0.194087676    0.212036937
       0.584878785    0.715063950    0.216573530
       0.172041167    0.908340733    0.024779142
       0.652781328    0.482041076    0.057899085
       0.290092237    0.414758718    0.230774283
       0.797682878    0.990967056    0.211191847
       0.201212729    0.211672484    0.393998252
       0.729088336    0.722515137    0.367060844
       0.324839554    0.251083269    0.557382344
       0.866019834    0.743322134    0.522549144
       0.460563187    0.510433799    0.379683421
       0.961690401    0.944286708    0.369476121
       0.067292193    0.729917807    0.194310882
       0.536242852    0.213198952    0.232635510
       0.145226515    0.478634802    0.046106708
       0.638906711    0.906168073    0.048086372
       0.232350199    0.979309036    0.698631625
       0.733456568    0.560204574    0.689469595
       0.839359920    0.061782860    0.864202988
       0.391151801    0.535808305    0.889351216
       0.411568712    0.682817805    0.085110356
       0.894646771    0.207555394    0.054665710
       0.045501173    0.332051561    0.861617399
       0.608765416    0.784165827    0.841941870
       0.933603069    0.268102289    0.705254949
       0.493382136    0.772470264    0.684606376
       0.090706187    0.461366768    0.544588229
       0.589460231    0.041267227    0.541222707
       0.233731165    0.549018998    0.710921536
       0.731751793    0.979764744    0.688978459
       0.804750319    0.486893930    0.875023364
       0.327298372    0.143054688    0.875685358
       0.406178197    0.217703981    0.072568202
       0.924038277    0.717379322    0.039273797
       0.092191295    0.837130478    0.842124065
       0.579915320    0.231885000    0.882313148
       0.995068550    0.753453255    0.679341608
       0.466809227    0.301034565    0.718506221
       0.086535982    0.040319000    0.549715779
       0.586140512    0.464009749    0.540876206
