system
1.00000000
       8.338953000    0.000000000    0.000000000
      -3.602001038    7.762181764    0.000000000
       0.604940623   -1.181897554   10.947284208
Al P O
12 12 48 
Direct
       0.047394284    0.107868994    0.287417587
       0.470846689    0.718440971    0.273246997
       0.631992242    0.246403702    0.201253531
       0.081440845    0.737309925    0.205120263
       0.155379320    0.158512020    0.882015434
       0.620481555    0.690619022    0.886892545
       0.021321927    0.495821341    0.596095825
       0.558192097    0.987884097    0.592966916
       0.787880583    0.222721254    0.921316643
       0.152977562    0.611638645    0.962406411
       0.685448671    0.556000222    0.603494715
       0.274570987    0.154408474    0.554991068
       0.404036404    0.376645756    0.399839047
       0.813580284    0.775753743    0.380420501
       0.719514540    0.980215546    0.112513580
       0.206237882    0.432457383    0.120762202
       0.800475932    0.275935263    0.434716768
       0.259191434    0.788520296    0.443574066
       0.267580766    0.006531835    0.086826254
       0.784507423    0.542485609    0.039622706
       0.930901504    0.166602529    0.693984001
       0.384425435    0.673581144    0.733423374
       0.519268057    0.262617659    0.769582565
       0.007698237    0.785561080    0.783292673
       0.394316094    0.570567170    0.134732397
       0.647596763    0.867010558    0.995436689
       0.455144228    0.392195361    0.537615819
       0.680507860    0.725440122    0.277893796
       0.382081294    0.527907351    0.365091480
       0.913198274    0.974077451    0.399222696
       0.976848693    0.293604086    0.482223300
       0.449147050    0.819554145    0.474381856
       0.572877247    0.946854244    0.209626387
       0.165451433    0.362275275    0.983755308
       0.759109461    0.165650934    0.071810986
       0.089393792    0.536816312    0.131745197
       0.629259348    0.532761163    0.969769707
       0.158485350    0.045684883    0.001779451
       0.814264580    0.275299434    0.296620814
       0.272642751    0.766363590    0.300995225
       0.792303312    0.440026939    0.505936372
       0.218463405    0.940715212    0.489258352
       0.224436182    0.214188996    0.407980915
       0.943357631    0.697684996    0.333981204
       0.449510198    0.148877681    0.096283648
       0.886459946    0.450661814    0.950916909
       0.264122274    0.823827808    0.057694033
       0.717681541    0.448368473    0.148859482
       0.913585988    0.336888860    0.707255103
       0.418653362    0.854891198    0.710234729
       0.934342611    0.142388960    0.838282010
       0.567933292    0.661178377    0.717806085
       0.153362088    0.294949624    0.204538948
       0.889596609    0.997706986    0.161464360
       0.766265319    0.014295562    0.647138322
       0.367465418    0.645843092    0.874259355
       0.105173453    0.176173970    0.645099407
       0.236307255    0.532331236    0.661769292
       0.639152881    0.120265096    0.468156525
       0.129853733    0.621900224    0.479666057
       0.446718362    0.137252041    0.649267875
       0.941129216    0.672780991    0.659118941
       0.590783654    0.168638105    0.846384694
       0.103412853    0.696776925    0.840698525
       0.931139583    0.717638824    0.078580170
       0.173207461    0.983388484    0.215272817
       0.659217329    0.429300022    0.732862938
       0.132806706    0.971172698    0.768885940
       0.365322536    0.292744939    0.828065519
       0.849279413    0.787796623    0.853593723
       0.520277317    0.311276067    0.322723877
       0.723224530    0.711628432    0.499268115
