system
1.00000000
       8.844520000    0.000000000    0.000000000
       3.553687511    7.219817974    0.000000000
       1.496010609   -1.276649414   10.919951719
Al P O
12 12 48 
Direct
       0.003434989    0.673936928    0.239555836
       0.525090273    0.617460464    0.239076458
       0.553294425    0.019365285    0.233273940
       0.099226116    0.223885743    0.295873440
       0.681506719    0.020138577    0.868780803
       0.123064753    0.092448535    0.937881799
       0.775931751    0.665951486    0.622297412
       0.356216796    0.655246692    0.588628156
       0.154976505    0.639945764    0.941199961
       0.717806820    0.430282293    0.876582310
       0.344744865    0.228512334    0.542379194
       0.769636923    0.182624786    0.605110130
       0.717675330    0.940124386    0.436838499
       0.292961374    0.941650110    0.428539530
       0.211171106    0.861787548    0.131719460
       0.781970621    0.704592999    0.040325764
       0.260587180    0.482149000    0.387960496
       0.758417083    0.435025075    0.417807061
       0.754658431    0.216028262    0.090286770
       0.258901908    0.320331137    0.084148767
       0.998768184    0.804147477    0.716842307
       0.485594869    0.787842583    0.796225218
       0.463530537    0.316809329    0.768838190
       0.005270625    0.291994811    0.705081398
       0.957955131    0.682181763    0.069709278
       0.386560110    0.714456657    0.135341011
       0.794134796    0.816952357    0.314873614
       0.331097521    0.016810628    0.541966590
       0.661550832    0.845213497    0.534269415
       0.119135716    0.057163576    0.398769175
       0.087926480    0.636901147    0.381800470
       0.628142643    0.597667900    0.366927767
       0.184476534    0.841449488    0.993199999
       0.654978971    0.753095530    0.159695081
       0.194482032    0.054940120    0.160734154
       0.817885774    0.524513562    0.969354116
       0.411651451    0.176292501    0.130824151
       0.943729890    0.147807542    0.055037222
       0.238954469    0.295845855    0.390189005
       0.877848523    0.292249979    0.310820726
       0.313333949    0.471415904    0.521304570
       0.659460677    0.366002306    0.511548638
       0.554703472    0.105329683    0.403135244
       0.315087614    0.748633545    0.450645555
       0.667679870    0.416138722    0.141754164
       0.186053473    0.260131381    0.985121927
       0.714854880    0.086072056    0.168270325
       0.284205865    0.485111798    0.040475017
       0.971222823    0.681006744    0.626411552
       0.507499537    0.678905745    0.668547735
       0.835060625    0.999651170    0.733967305
       0.316561016    0.958371828    0.825236302
       0.695532993    0.880452107    0.981222628
       0.072415930    0.841926913    0.212630978
       0.995250194    0.748648982    0.847507940
       0.522296938    0.650838631    0.891497209
       0.160838832    0.820425257    0.678633962
       0.637680362    0.837255616    0.767569626
       0.403824102    0.466579236    0.291733810
       0.866680971    0.495633607    0.488395141
       0.496680615    0.213298337    0.641141417
       0.969430167    0.181750229    0.609882415
       0.309659648    0.506832884    0.797499515
       0.838307437    0.484431726    0.734275200
       0.103200857    0.411702887    0.199907087
       0.697494299    0.223565328    0.957956664
       0.470939712    0.184712078    0.861838299
       0.989360407    0.212713888    0.828422830
       0.634271608    0.338089381    0.753890427
       0.162497804    0.319212580    0.674052737
       0.838477765    0.004764225    0.482797673
       0.424259141    0.914930741    0.313805215
