system
1.00000000
       8.826657000    0.000000000    0.000000000
       4.158455578    7.565053295    0.000000000
       1.382347244   -0.496733321   10.505271451
Al P O
12 12 48 
Direct
       0.953882897    0.658132726    0.253421288
       0.419468925    0.717173340    0.274917405
       0.510804237    0.141538441    0.267151824
       0.013707690    0.222854521    0.230850942
       0.722503699    0.953000511    0.889601889
       0.150659996    0.079212593    0.947370708
       0.797470559    0.673702242    0.614148506
       0.377842700    0.696443067    0.559815145
       0.186825999    0.570033820    0.922157172
       0.724850673    0.460912214    0.884794990
       0.377735834    0.242513395    0.552431667
       0.811049985    0.174178429    0.622120132
       0.755784087    0.970947776    0.442003733
       0.279580430    0.020553380    0.412253452
       0.184176098    0.761722988    0.089273795
       0.693604762    0.699554127    0.082921324
       0.278200522    0.504534819    0.386054403
       0.737470043    0.466526946    0.429406707
       0.770751281    0.186276572    0.067725246
       0.238028035    0.291768118    0.093720564
       0.022615508    0.790828101    0.710892781
       0.498146241    0.808512468    0.788431376
       0.514236957    0.295464134    0.785869502
       0.029115925    0.303554442    0.712112110
       0.772379952    0.657683476    0.206633080
       0.205083189    0.840590969    0.207647493
       0.818678670    0.880874285    0.312490663
       0.333416449    0.061278617    0.530310619
       0.694735212    0.871940865    0.535320873
       0.108977696    0.149619703    0.369314589
       0.095269625    0.633834424    0.367091253
       0.560215649    0.632977065    0.413447977
       0.319314690    0.574565347    0.038259824
       0.524441096    0.693410345    0.121047367
       0.168500300    0.872201848    0.972713548
       0.816065643    0.558577357    0.979109115
       0.403687778    0.258485808    0.137032909
       0.660394190    0.364566926    0.017099707
       0.332110831    0.515535974    0.519161408
       0.801492224    0.353885686    0.307451078
       0.410095719    0.513487244    0.284597607
       0.692827799    0.375335683    0.540018647
       0.581546605    0.142288381    0.423244358
       0.271924687    0.844719875    0.432869516
       0.948327409    0.177113418    0.090311301
       0.237031122    0.113120319    0.086593826
       0.830817732    0.040223382    0.967646715
       0.187168397    0.373194582    0.967999421
       0.996967189    0.680808767    0.616458245
       0.521056780    0.728911374    0.651212239
       0.861275833    0.979626705    0.730431897
       0.338517645    0.986536905    0.821420224
       0.649248572    0.883468247    0.035026273
       0.021497592    0.731651751    0.106299555
       0.006939122    0.718450750    0.845519720
       0.521636633    0.661770183    0.876341405
       0.190074647    0.799792457    0.679659626
       0.667337626    0.828153757    0.776903704
       0.297809157    0.316840917    0.387386349
       0.861454756    0.532370208    0.464704804
       0.540162517    0.206236978    0.654364342
       0.009754688    0.181980944    0.623180037
       0.355690433    0.476626587    0.792347692
       0.856274908    0.487512345    0.725126169
       0.078633066    0.399172893    0.199504500
       0.694620901    0.153493665    0.193082971
       0.522702078    0.165400118    0.885308250
       0.007070861    0.243488549    0.849907688
       0.681623974    0.317618862    0.775152816
       0.185145830    0.330811387    0.676832921
       0.881211131    0.023689136    0.487188441
       0.430105391    0.976531363    0.299649702
