system
1.00000000
       8.500609000    0.000000000    0.000000000
      -3.501339740    7.724058367    0.000000000
      -1.927882604   -3.976200244   10.645299371
Al P O
12 12 48 
Direct
       0.761157224    0.579656939    0.214945369
       0.256425080    0.056184752    0.226985525
       0.861137747    0.318748672    0.286875336
       0.402942840    0.648018104    0.283583521
       0.869178827    0.907167466    0.956173500
       0.369344985    0.412137212    0.958674109
       0.783195727    0.438786304    0.616695323
       0.221807557    0.074285177    0.604774698
       0.886813488    0.318034024    0.885510517
       0.393667666    0.827265236    0.888216993
       0.780167975    0.993873603    0.548927889
       0.279931441    0.509811176    0.546991314
       0.056034992    0.154569626    0.409705253
       0.614133806    0.583399300    0.442513271
       0.010457039    0.698217737    0.069216135
       0.499601537    0.193132664    0.082820908
       0.133715578    0.710352091    0.411448406
       0.583993797    0.075339367    0.394202277
       0.077520618    0.262107557    0.096393913
       0.581461304    0.761812704    0.090442097
       0.061579014    0.828241603    0.761541795
       0.558820835    0.326309810    0.766482134
       0.089922534    0.354033023    0.734745598
       0.582486597    0.855316455    0.731996611
       0.707866674    0.342746670    0.144480874
       0.206174991    0.849877891    0.112423095
       0.102379896    0.097106989    0.293441981
       0.619790214    0.597385113    0.308195454
       0.888991388    0.003067464    0.416276884
       0.645726288    0.433761172    0.471733668
       0.923007110    0.560640852    0.353126709
       0.402814092    0.069469613    0.367122120
       0.951110174    0.725420978    0.188839844
       0.434049869    0.221781333    0.196995715
       0.009163473    0.515137423    0.022514449
       0.508173404    0.016993985    0.031448361
       0.755858480    0.915134714    0.096177379
       0.262957417    0.427883639    0.114976076
       0.216781103    0.684631314    0.305991994
       0.680890880    0.133642951    0.300106124
       0.221706009    0.679062186    0.521398345
       0.559700287    0.892957672    0.419206595
       0.032645762    0.332194671    0.425465841
       0.404510248    0.527488248    0.408678809
       0.012354807    0.318083564    0.203694018
       0.499155512    0.788387343    0.194512087
       0.095684179    0.084869597    0.079923977
       0.598834939    0.579251732    0.081536777
       0.965803397    0.650960616    0.645408612
       0.457257302    0.154307618    0.646528923
       0.938610747    0.890988152    0.816777166
       0.420124038    0.373797668    0.811834876
       0.392422900    0.221806012    0.979479408
       0.879987426    0.706954384    0.967230756
       0.170531271    0.790724613    0.862327897
       0.667623182    0.291890490    0.868210819
       0.176518865    0.982841261    0.721150278
       0.675912062    0.482729588    0.727222948
       0.131325921    0.891889366    0.458230301
       0.728840937    0.203980242    0.526717058
       0.023487472    0.157330857    0.644164282
       0.511107920    0.663747426    0.636815316
       0.922276425    0.382714195    0.744984221
       0.426880839    0.891934425    0.754899063
       0.418781733    0.668773363    0.965460735
       0.917837605    0.179176779    0.972611944
       0.141350601    0.348176041    0.867802383
       0.647869375    0.845451898    0.862573661
       0.216404424    0.502752835    0.696304147
       0.718388662    0.012260410    0.699507681
       0.237885902    0.250616256    0.522180946
       0.757187232    0.771035492    0.533415394
