system
1.00000000
       8.378838000    0.000000000    0.000000000
       2.719405266    7.135525820    0.000000000
      -1.794537127    2.874057118   11.947502734
Al P O
12 12 48 
Direct
       0.526402316    0.205648225    0.231609137
       0.956901438    0.647673901    0.180182423
       0.608371591    0.766441976    0.246225013
       0.003121091    0.177723099    0.244705314
       0.076595078    0.321627016    0.851849457
       0.519966899    0.790290249    0.882904506
       0.825133661    0.014245243    0.592848346
       0.295877571    0.693199681    0.497731594
       0.935541647    0.979820973    0.952740454
       0.416618770    0.482370132    0.896683412
       0.859551256    0.450875281    0.567173494
       0.407874758    0.141085130    0.585277741
       0.562619375    0.871385514    0.464620917
       0.095855147    0.314917967    0.404575032
       0.196370677    0.426731180    0.056517698
       0.604937216    0.036982632    0.031638126
       0.600754174    0.402179053    0.417310538
       0.922494829    0.873715736    0.361589154
       0.219477246    0.855482026    0.153596737
       0.697663748    0.464428681    0.098062228
       0.843057585    0.743615768    0.795407348
       0.210551567    0.467799066    0.682902448
       0.703657082    0.310122481    0.754662526
       0.204710723    0.973356537    0.735490951
       0.571814235    0.016640287    0.151083764
       0.301375528    0.320226029    0.175491604
       0.541069508    0.947833162    0.337562334
       0.993359062    0.448419778    0.468073352
       0.713659913    0.685238465    0.503647747
       0.038038430    0.405085401    0.274538686
       0.553916896    0.266072442    0.359363589
       0.059331721    0.134450079    0.401357888
       0.414425202    0.764975342    0.166658086
       0.730818977    0.630064271    0.144719462
       0.140807795    0.714584306    0.198621167
       0.596209791    0.559135820    0.973200313
       0.588172993    0.386746286    0.159456696
       0.187075267    0.015018411    0.217795424
       0.462115723    0.490149561    0.481671082
       0.853380461    0.061326278    0.268474017
       0.772589432    0.276888988    0.510503228
       0.118842996    0.760891031    0.388736196
       0.643671661    0.546747380    0.342612275
       0.287610074    0.266874400    0.447843108
       0.286028757    0.545225431    0.997454234
       0.871638461    0.303831840    0.103842745
       0.184179161    0.272830940    0.993369758
       0.807879816    0.928405626    0.048722285
       0.747530752    0.449144118    0.676225319
       0.362467978    0.307970455    0.664165967
       0.543983838    0.437435782    0.789030688
       0.192448901    0.100111311    0.818962125
       0.503590818    0.943509536    0.969784031
       0.136621653    0.940087183    0.028582538
       0.900285301    0.532724786    0.849348691
       0.234575868    0.457522416    0.809883989
       0.645476627    0.836525593    0.793866450
       0.046495882    0.420242881    0.670806375
       0.392653539    0.859439073    0.485534065
       0.866833070    0.917793304    0.466717993
       0.869926085    0.778354331    0.677772810
       0.202604898    0.656417864    0.614972031
       0.947507363    0.831778372    0.862906278
       0.027985315    0.011822484    0.668287032
       0.555167477    0.240607829    0.974435519
       0.013139880    0.562039563    0.060758279
       0.864418231    0.212473862    0.862008901
       0.324313283    0.767565383    0.816943730
       0.689971767    0.149871887    0.698122485
       0.319801536    0.992328941    0.654328944
       0.593298257    0.011035736    0.537956894
       0.845857150    0.750968414    0.294552857
