system
1.00000000
       8.886434000    0.000000000    0.000000000
      -3.941049438    7.977608087    0.000000000
       0.150777419    0.146133405   10.413147237
Al P O
12 12 48 
Direct
       0.239608119    0.051564958    0.292931906
       0.292600579    0.529145840    0.200577273
       0.728356633    0.477274754    0.216160372
       0.679038036    0.987279115    0.302989449
       0.993506839    0.739229898    0.938732071
       0.004823418    0.169026958    0.934875632
       0.172918426    0.657841691    0.545795081
       0.237106865    0.260645777    0.586320726
       0.488213098    0.163084939    0.909981815
       0.507256767    0.802588881    0.866679173
       0.839153381    0.362787241    0.607945174
       0.778264772    0.715432052    0.606925135
       0.012083545    0.755734458    0.383322277
       0.015143963    0.314872878    0.379041154
       0.307677600    0.269560106    0.074941756
       0.288888011    0.823985430    0.080343467
       0.525894661    0.249026230    0.457679127
       0.486416575    0.664679308    0.439425880
       0.734018599    0.774198379    0.094185239
       0.753581769    0.197696728    0.081960862
       0.226552420    0.952968951    0.703808295
       0.169905605    0.475079709    0.789167693
       0.682789389    0.516809127    0.805196912
       0.797284218    0.022512331    0.711687833
       0.250661551    0.944861794    0.157102485
       0.327584089    0.447541282    0.055484769
       0.037150593    0.933245503    0.354631804
       0.087851394    0.420144957    0.258624466
       0.178260075    0.741808581    0.383474582
       0.136789800    0.264396298    0.445497850
       0.390810720    0.084194729    0.406146580
       0.432698630    0.555283689    0.320875970
       0.239034196    0.224904016    0.213668938
       0.372028147    0.742161041    0.160851490
       0.465533137    0.245100428    0.064031411
       0.403009832    0.917789242    0.961835689
       0.818582482    0.377318382    0.125347980
       0.738878169    0.851961468    0.223248336
       0.608294087    0.358319063    0.340705489
       0.533116910    0.851479721    0.415005496
       0.651554971    0.215099544    0.533738542
       0.637853534    0.645440227    0.484705443
       0.893891565    0.636878444    0.290090520
       0.853131634    0.161402362    0.358135520
       0.656435553    0.583857653    0.113774719
       0.616387417    0.081127638    0.177286410
       0.916123107    0.841322098    0.043382225
       0.897294442    0.146705159    0.080796605
       0.287047223    0.845911142    0.627109091
       0.223507125    0.349951321    0.729559414
       0.084001035    0.838663761    0.795865554
       0.052757364    0.381549573    0.900497940
       0.126686621    0.686185722    0.028097449
       0.189088489    0.153759279    0.973841841
       0.375412159    0.081857983    0.772330216
       0.322249544    0.630815911    0.828895044
       0.156316125    0.045665347    0.618697055
       0.067772265    0.526095447    0.691418599
       0.446309170    0.331996716    0.544336945
       0.339562319    0.595293580    0.537312490
       0.752479394    0.493163846    0.671058586
       0.824070980    0.929701069    0.598986078
       0.525646026    0.369700293    0.843223829
       0.609835311    0.951109345    0.745929758
       0.692102952    0.182857259    0.942912794
       0.629758182    0.808501518    0.995377973
       0.822420052    0.553659936    0.898943803
       0.896139810    0.009590969    0.827998219
       0.659678106    0.674053367    0.766089443
       0.874100500    0.208620738    0.682281342
       0.957897402    0.711104786    0.527585692
       0.980805150    0.434616327    0.472372625
