system
1.00000000
       8.799099000    0.000000000    0.000000000
       0.161611629    7.172716560    0.000000000
      -0.553320335    0.256915624   11.311927652
Al P O
12 12 48 
Direct
       0.052822929    0.043527546    0.285060749
       0.686811999    0.553660413    0.294938221
       0.090981161    0.450337968    0.262552409
       0.609517022    0.958370107    0.321544042
       0.230511582    0.024871848    0.919712599
       0.690303467    0.396021500    0.996054680
       0.446356416    0.938434548    0.539692331
       0.004534588    0.501580071    0.655364216
       0.249546759    0.572931641    0.060282753
       0.724451297    0.963129041    0.925119647
       0.479915724    0.521745717    0.619489485
       0.958836290    0.076376060    0.675629253
       0.375133134    0.629399369    0.368208879
       0.691549301    0.252129271    0.517012834
       0.808038773    0.211533524    0.176916266
       0.540449809    0.762738191    0.078104784
       0.180001496    0.216334637    0.514212019
       0.910259777    0.717862259    0.409861379
       0.998484235    0.778606246    0.064809504
       0.335463579    0.155746423    0.175868866
       0.947808270    0.262759521    0.878495562
       0.730678728    0.758443283    0.694170823
       0.224887784    0.802926850    0.746132497
       0.402388627    0.351518049    0.854800912
       0.239866547    0.027204947    0.248244283
       0.721656458    0.403438438    0.168555188
       0.212030036    0.636182409    0.317884950
       0.700017361    0.381451969    0.411965540
       0.377723485    0.532620759    0.487213399
       0.851286716    0.236206740    0.572848146
       0.438590488    0.832331698    0.391701871
       0.915566507    0.574692990    0.306498160
       0.978257155    0.253370556    0.197281688
       0.641079917    0.776384878    0.196324737
       0.140951631    0.813858617    0.995905604
       0.589722181    0.600214828    0.006057482
       0.263936252    0.361621180    0.178407036
       0.775874612    0.085612546    0.279533964
       0.108185196    0.259788553    0.384131930
       0.734435523    0.756687129    0.396941189
       0.344887251    0.149507008    0.503541415
       0.962105048    0.617777109    0.520081134
       0.484986404    0.532726950    0.291167755
       0.997684416    0.891020329    0.394225373
       0.977904878    0.898655289    0.168825492
       0.496003515    0.136542966    0.233887074
       0.052718182    0.575141950    0.110694136
       0.562674324    0.936540228    0.006789492
       0.310658469    0.823524694    0.630669191
       0.810658645    0.569671121    0.708667233
       0.833130168    0.112386185    0.833075827
       0.309062584    0.447319003    0.946365293
       0.380040773    0.732455292    0.115634430
       0.770377417    0.149525370    0.051446151
       0.067511702    0.175705254    0.962329843
       0.659802145    0.831605733    0.802697493
       0.012520956    0.303956296    0.756936091
       0.585899823    0.736812462    0.604303518
       0.167227889    0.388517700    0.585954213
       0.620768760    0.061868074    0.475702330
       0.131224433    0.629534197    0.745376768
       0.833047901    0.896158785    0.637193383
       0.865954842    0.428309619    0.929646825
       0.318831130    0.183365256    0.811747701
       0.331733145    0.104203692    0.048883880
       0.856496188    0.785720249    0.985990183
       0.335599614    0.825707853    0.852046017
       0.561402174    0.281990052    0.903463871
       0.102314491    0.957661200    0.774850096
       0.424917988    0.500366229    0.760309097
       0.093158278    0.058317942    0.564649212
       0.588110891    0.316201049    0.612825779
