system
1.00000000
       8.616647000    0.000000000    0.000000000
      -0.029081965    6.071539351    0.000000000
       0.599431095    0.183607024   12.758417546
Al P O
12 12 48 
Direct
       0.075533443    0.041617924    0.306543101
       0.571629603    0.524013175    0.289846252
       0.069563218    0.537892208    0.287408321
       0.575256098    0.031700573    0.297573455
       0.308122438    0.962546603    0.932463503
       0.814525713    0.479333673    0.971974497
       0.398358641    0.991842431    0.604903228
       0.882902103    0.513897396    0.616017805
       0.319724107    0.481227246    0.952744792
       0.800918495    0.949585520    0.940563710
       0.414120089    0.464270601    0.632734480
       0.925465920    0.998476549    0.660152331
       0.323947986    0.766233568    0.408590659
       0.645468875    0.262341515    0.497835586
       0.825517775    0.270765983    0.179956582
       0.557004693    0.741577331    0.073118714
       0.134780222    0.256254682    0.513315934
       0.821337227    0.768452206    0.417858292
       0.065494781    0.744620035    0.069699884
       0.322513991    0.271175310    0.171714025
       0.051047837    0.225453991    0.838387819
       0.619345019    0.591095649    0.788294561
       0.178427372    0.721910276    0.745844442
       0.605238674    0.100828068    0.783435813
       0.230926596    0.069644284    0.207872199
       0.746518434    0.482956856    0.210969780
       0.156996161    0.775681876    0.365445879
       0.644639788    0.275378964    0.376734646
       0.323347758    0.763165818    0.529730750
       0.804752350    0.278659679    0.544757374
       0.397921189    0.979170950    0.368736181
       0.903419081    0.566822078    0.376523043
       0.978827755    0.276564338    0.239911199
       0.517660820    0.754157610    0.192213844
       0.151054177    0.948814149    0.030398668
       0.632442683    0.527089338    0.040069925
       0.244152020    0.478814022    0.210752367
       0.741341772    0.061657947    0.212351916
       0.144773502    0.262336684    0.392809007
       0.657926187    0.770064317    0.368290064
       0.300782497    0.243071281    0.558394902
       0.815182965    0.751519644    0.540787813
       0.397756339    0.558656605    0.369918612
       0.897245465    0.982002445    0.381174841
       0.021004515    0.754877024    0.188296793
       0.480719372    0.269671735    0.226933302
       0.144709848    0.534859165    0.035012581
       0.647796129    0.943946306    0.037604199
       0.253180738    0.932369559    0.704545569
       0.743439957    0.461788631    0.723532001
       0.982182445    0.004801880    0.873261176
       0.497353125    0.465253863    0.858664810
       0.404588497    0.741945456    0.011053312
       0.867644185    0.261859771    0.061455547
       0.225952481    0.226213649    0.872561765
       0.730415309    0.702782679    0.866528016
       0.019461484    0.230940106    0.720736544
       0.519836622    0.689441725    0.700095647
       0.065201424    0.469942857    0.550480687
       0.572644709    0.041357918    0.528371196
       0.242369983    0.508850847    0.705971515
       0.729276266    0.983526511    0.712303779
       0.973615598    0.424307913    0.883709690
       0.484398800    0.963647041    0.847630280
       0.366496350    0.264924833    0.051422844
       0.905203805    0.735510477    0.014952157
       0.220234972    0.718533035    0.863184547
       0.710024652    0.185042280    0.872111335
       0.003166620    0.732568907    0.711664416
       0.495170611    0.209332938    0.701506841
       0.052361069    0.044763771    0.549244312
       0.555967954    0.465048799    0.531853583
