system
1.00000000
      12.225875000    0.000000000    0.000000000
      -0.960774601    5.127543831    0.000000000
      -4.610175625    0.846775778   10.438975522
Al P O
12 12 48 
Direct
       0.060714424    0.179700298    0.362719739
       0.705195529    0.710141728    0.233862190
       0.205194569    0.710129106    0.233863194
       0.560712524    0.179703803    0.362721341
       0.314344238    0.723214141    0.873917549
       0.710886766    0.317650822    0.040071002
       0.464506132    0.861174818    0.551270531
       0.820034850    0.330728656    0.680124050
       0.210887177    0.317650446    0.040070496
       0.814343481    0.723217262    0.873913946
       0.320039099    0.330722609    0.680127806
       0.964508466    0.861171560    0.551268004
       0.181798220    0.713838044    0.485803144
       0.843436042    0.327050183    0.428179522
       0.999114765    0.437554748    0.095418262
       0.364944679    0.870786492    0.142071748
       0.343434044    0.327045010    0.428181216
       0.681795075    0.713837404    0.485801855
       0.864947832    0.870789266    0.142067022
       0.499112969    0.437555803    0.095418954
       0.160285127    0.170082298    0.771914106
       0.526118022    0.603324163    0.818568271
       0.026115858    0.603305284    0.818565787
       0.660281586    0.170080865    0.771915472
       0.275280884    0.034798365    0.157207046
       0.794615481    0.589818056    0.161778095
       0.202550341    0.832370138    0.365102646
       0.713981208    0.338932997    0.323153097
       0.311254593    0.701959577    0.590833137
       0.822685076    0.208510598    0.548884951
       0.417012188    0.129297578    0.412757167
       0.906007897    0.606004502    0.432932638
       0.990614295    0.387015972    0.226299430
       0.483916077    0.909350764    0.253118932
       0.071471711    0.258583355    0.070493060
       0.570309942    0.713019166    0.098569496
       0.294616897    0.589821456    0.161779622
       0.775281387    0.034797559    0.157206097
       0.213979771    0.338924947    0.323152720
       0.702549367    0.832371163    0.365103251
       0.119229855    0.434874931    0.481053481
       0.811253816    0.701956711    0.590833421
       0.406003745    0.606014626    0.432931566
       0.917011059    0.129291918    0.412755202
       0.983913569    0.909345018    0.253114438
       0.490616334    0.387021621    0.226301068
       0.070308617    0.713014296    0.098569547
       0.571472213    0.258581642    0.070494054
       0.249950397    0.006068690    0.756780058
       0.730614506    0.451055658    0.752205191
       0.953758824    0.782290559    0.843492268
       0.541316102    0.131531037    0.660872487
       0.366097547    0.917428665    0.010958222
       0.865115232    0.432574451    0.998422431
       0.159130043    0.123444971    0.903024138
       0.660117796    0.608291851    0.915562508
       0.034616230    0.653852903    0.687688054
       0.534616486    0.653857716    0.687688704
       0.108222006    0.911587641    0.501230796
       0.608220007    0.911587317    0.501231427
       0.230617232    0.451047588    0.752205693
       0.749948149    0.006074891    0.756776929
       0.041317372    0.131527716    0.660865164
       0.453760800    0.782281274    0.843495809
       0.365116054    0.432574470    0.998425756
       0.866097834    0.917424614    0.010959723
       0.160116209    0.608294524    0.915561215
       0.454925001    0.327846886    0.815419491
       0.954922471    0.327860769    0.815416428
       0.659133019    0.123442392    0.903026034
       0.322685056    0.208513765    0.548884224
       0.619229514    0.434877295    0.481056812
