system
1.00000000
       8.850380000    0.000000000    0.000000000
       3.409904580    9.221691543    0.000000000
       1.787537534    2.020276730    8.400602734
Al P O
12 12 48 
Direct
       0.262314564    0.185837930    0.136819483
       0.637755523    0.385288271    0.917281675
       0.110618938    0.961186376    0.337011107
       0.752583312    0.747574487    0.556039873
       0.679577471    0.003265245    0.927333656
       0.580834767    0.657116773    0.355245200
       0.498563396    0.910973776    0.751162147
       0.992967273    0.479694121    0.173326100
       0.996983800    0.250854741    0.764574472
       0.302432873    0.508536506    0.516713573
       0.144170720    0.710237138    0.964621118
       0.593011086    0.252254326    0.383659987
       0.270473816    0.129824417    0.501007759
       0.618336235    0.981665931    0.238537090
       0.205100017    0.965168989    0.981137969
       0.885961288    0.227731107    0.137875646
       0.030119351    0.555580737    0.780200115
       0.651754029    0.664718273    0.046267404
       0.419188518    0.662926711    0.694404128
       0.794174708    0.423771457    0.496834390
       0.826945858    0.006970668    0.609662524
       0.443675121    0.242306002    0.804460390
       0.050343209    0.689769994    0.338201551
       0.360219070    0.446681052    0.167033452
       0.025745533    0.297951712    0.115033877
       0.229868159    0.005033018    0.131656268
       0.118245087    0.220005525    0.582416400
       0.477344657    0.066702354    0.135780788
       0.351905529    0.985437419    0.610667818
       0.758686556    0.934356412    0.110162885
       0.014362501    0.405124135    0.806665162
       0.670794526    0.547794924    0.957431489
       0.364870169    0.866788459    0.922642317
       0.944064228    0.068184389    0.225935468
       0.407074882    0.658256615    0.518294121
       0.839908663    0.245402797    0.967942963
       0.814318596    0.344952302    0.670776438
       0.552312921    0.739153300    0.681368516
       0.886978826    0.671046547    0.705419393
       0.781986303    0.605519858    0.163467850
       0.391995693    0.212263474    0.426979492
       0.662160292    0.811867802    0.924304116
       0.216097521    0.090216943    0.360380850
       0.583661743    0.843732496    0.361525964
       0.492010825    0.503595481    0.781716379
       0.938088768    0.384580157    0.376709113
       0.258058148    0.748220107    0.767750596
       0.632907142    0.439567535    0.442572685
       0.700006205    0.922915983    0.615242382
       0.303039542    0.281522986    0.928701397
       0.178445606    0.768374996    0.321165378
       0.321580043    0.595380107    0.051746061
       0.738988899    0.317349276    0.224404927
       0.147082729    0.113251125    0.868305073
       0.996513593    0.944791633    0.529919713
       0.413403785    0.329409563    0.636744882
       0.738570568    0.166309904    0.530192814
       0.498340815    0.071792492    0.808598425
       0.192026775    0.561393382    0.692150745
       0.502100145    0.700165515    0.171039966
       0.038485505    0.648600083    0.185609902
       0.404996543    0.457860582    0.323834309
       0.850164908    0.993370061    0.781486448
       0.606342344    0.227580966    0.859968747
       0.750320635    0.594587652    0.487368551
       0.078702842    0.885570906    0.009793300
       0.107794797    0.538355779    0.454535699
       0.507925236    0.339546264    0.098311098
       0.890079088    0.794154663    0.388270990
       0.220953889    0.375249876    0.192919894
       0.034833512    0.587505272    0.945294546
       0.653819127    0.075248140    0.323489447
