system
1.00000000
       8.506009000    0.000000000    0.000000000
      -3.920153882    7.730284022    0.000000000
      -0.164637641   -2.124136482   10.509023337
Al P O
12 12 48 
Direct
       0.161185708    0.232079396    0.312324917
       0.694917098    0.192405548    0.195536866
       0.246114154    0.656451173    0.233945608
       0.687513948    0.653670935    0.252225795
       0.180606587    0.018006847    0.918231988
       0.719708367    0.920367092    0.876531789
       0.468267030    0.308371715    0.568164031
       0.954346204    0.326337102    0.582189047
       0.112050484    0.510660774    0.933392371
       0.681558917    0.534688970    0.964126114
       0.592755699    0.891575856    0.625314519
       0.124512761    0.848056123    0.594528162
       0.310466035    0.019761912    0.384939032
       0.786493743    0.024242232    0.389757806
       0.971167079    0.209833198    0.061568231
       0.432501544    0.278524319    0.124068014
       0.296919870    0.534400987    0.480177059
       0.847237230    0.507641937    0.404346746
       0.993809587    0.736694992    0.089704584
       0.482827369    0.712830094    0.057868459
       0.171524752    0.232833804    0.736111675
       0.684311944    0.247637434    0.763036593
       0.332828031    0.800206919    0.790539344
       0.784662690    0.688821012    0.707704528
       0.350879853    0.342513282    0.229848383
       0.789265088    0.205106178    0.047267294
       0.177372583    0.030403471    0.294719620
       0.676979203    0.034775769    0.282246748
       0.485308210    0.190634895    0.412782423
       0.970250933    0.192729459    0.412551450
       0.320985353    0.365487868    0.465672247
       0.860161290    0.400297034    0.277879535
       0.998635554    0.145630336    0.177196250
       0.474481820    0.131742685    0.147638148
       0.106992507    0.405332249    0.074608413
       0.615663105    0.441584423    0.119104963
       0.619009453    0.884442831    0.026799960
       0.812971344    0.734532134    0.112397124
       0.208592976    0.509187470    0.344539014
       0.688212378    0.540299981    0.375309278
       0.472763125    0.698290409    0.505965462
       0.012133844    0.686198741    0.448880301
       0.343212946    0.861025916    0.346421786
       0.809776376    0.860389786    0.357945003
       0.059240600    0.693165704    0.202066589
       0.498420022    0.686619432    0.198632729
       0.110560450    0.895410599    0.039036218
       0.481948706    0.560024195    0.966701040
       0.354842978    0.344476173    0.703232217
       0.871968172    0.372569407    0.738170404
       0.155598282    0.049953257    0.757558187
       0.686796539    0.073548204    0.782403690
       0.317742224    0.229446279    0.001176114
       0.955090148    0.062998099    0.944016647
       0.137318987    0.331412095    0.853315384
       0.622112632    0.324707562    0.876415692
       0.022752380    0.179467886    0.633851314
       0.551271959    0.188382930    0.648911995
       0.164894835    0.516684369    0.576401392
       0.817517032    0.393321081    0.502892199
       0.357520659    0.958473997    0.888208821
       0.760877253    0.704782774    0.854492145
       0.179930156    0.637050184    0.814337261
       0.641918973    0.528553898    0.626763282
       0.295632624    0.701053631    0.056876076
       0.932224742    0.570087174    0.978994984
       0.323097869    0.847082041    0.657189895
       0.777840745    0.857250680    0.684389220
       0.498828412    0.770434577    0.781319215
       0.971825996    0.717576514    0.692568236
       0.232348409    0.024822716    0.516634504
       0.708073756    0.033788956    0.517126005
