system
1.00000000
       8.425599000    0.000000000    0.000000000
      -1.420069346   12.329231317    0.000000000
       0.000024895   -0.000218831    6.069713996
Al P O
12 12 48 
Direct
       0.002299587    0.001758671    0.984076035
       0.997767292    0.998280449    0.484064600
       0.147464327    0.337588636    0.997351856
       0.150270590    0.339032842    0.498359363
       0.362583411    0.677958517    0.987355459
       0.358242946    0.676392170    0.490893830
       0.496452207    0.998253749    0.006428347
       0.503612675    0.001618542    0.506406431
       0.641623590    0.323742046    0.990892764
       0.637358957    0.322079161    0.487364693
       0.849862939    0.660939759    0.998240346
       0.852602758    0.662278436    0.497233940
       0.312241046    0.161362553    0.353481806
       0.328683099    0.169915002    0.852329483
       0.410608292    0.463516856    0.244061487
       0.102122236    0.548732429    0.744775782
       0.105893817    0.797751778    0.242746335
       0.243670854    0.874752880    0.744278444
       0.756326993    0.125248219    0.244330789
       0.894041711    0.202280348    0.742799216
       0.897933060    0.451208369    0.244802384
       0.589317052    0.536572182    0.744007765
       0.671343940    0.830018178    0.352164620
       0.687908551    0.838625172    0.853372303
       0.433611894    0.593032181    0.741594960
       0.427102261    0.591639554    0.241574320
       0.088050215    0.422241390    0.745431568
       0.328062526    0.426236659    0.033263390
       0.403848305    0.068394872    0.255500984
       0.176215848    0.585452956    0.527054342
       0.331539554    0.427209728    0.458543387
       0.179007250    0.586704739    0.959446933
       0.276119533    0.754747657    0.241793770
       0.074464917    0.917825803    0.738120353
       0.088349245    0.923783598    0.238739795
       0.270695962    0.752922839    0.741490826
       0.550144386    0.769512865    0.972653174
       0.244275324    0.265992580    0.754321526
       0.322305889    0.915529845    0.533621792
       0.545102614    0.765953781    0.499166352
       0.315985865    0.912723210    0.962018015
       0.213660374    0.249548507    0.254038796
       0.435231640    0.084297669    0.756611567
       0.191737152    0.099464409    0.967671511
       0.972983605    0.245493390    0.533391616
       0.185568613    0.096298716    0.496878962
       0.970697427    0.243309466    0.955950606
       0.063856250    0.407293091    0.245739329
       0.936127838    0.592580191    0.745570200
       0.912133415    0.577718063    0.245343905
       0.572722649    0.408450374    0.741576409
       0.823829597    0.414475594    0.027110285
       0.925645241    0.082318244    0.238210206
       0.671772960    0.573855417    0.533127096
       0.820878757    0.413379132    0.459470349
       0.668582868    0.572810875    0.958420838
       0.755728761    0.733938984    0.254108560
       0.596254319    0.931591465    0.755477189
       0.564676294    0.915567482    0.256397578
       0.786556268    0.750475365    0.753916213
       0.027069955    0.754563515    0.033252037
       0.723843440    0.245334891    0.741785757
       0.808238341    0.900534896    0.467427779
       0.029214461    0.756667290    0.455857473
       0.814544913    0.903696984    0.996822638
       0.729115950    0.247053337    0.241672744
       0.911571873    0.076232563    0.738670088
       0.677757521    0.084406191    0.033659615
       0.449909116    0.230462878    0.472961317
       0.683986495    0.087174520    0.461983876
       0.454935759    0.234030577    0.999240097
       0.566349040    0.407076449    0.241444530
