system
1.00000000
       8.849442000    0.000000000    0.000000000
      -3.866281280    7.470995018    0.000000000
      -1.845342727   -0.951948597   10.595938169
Al P O
12 12 48 
Direct
       0.187282700    0.037715643    0.274306949
       0.104901963    0.494777465    0.247464351
       0.611914396    0.414786512    0.241310696
       0.611825366    0.876273793    0.244406557
       0.005384727    0.861707216    0.909811880
       0.984061837    0.331330153    0.898554221
       0.333046379    0.769067126    0.492357421
       0.297460709    0.325283141    0.561447480
       0.512206028    0.337386724    0.946349806
       0.501933601    0.914167131    0.862096334
       0.889795679    0.317835714    0.615760014
       0.886642276    0.773622535    0.629362612
       0.975415522    0.695079357    0.376879995
       0.975808362    0.172908767    0.389800072
       0.243219314    0.315506921    0.106077815
       0.249315672    0.796169567    0.110268999
       0.514662289    0.182553185    0.468462230
       0.531074525    0.631866725    0.437881403
       0.698904182    0.744421255    0.030972193
       0.711760685    0.202098467    0.078477472
       0.258866416    0.054063199    0.748583055
       0.266773689    0.568750275    0.733647262
       0.786762871    0.506514393    0.785640318
       0.797056738    0.005379645    0.748826186
       0.294048108    0.928403703    0.223313027
       0.261515633    0.439116538    0.216257181
       0.999296454    0.835133639    0.286298914
       0.960025775    0.293031800    0.289864056
       0.134821712    0.650712261    0.377908798
       0.153180185    0.167674329    0.394331489
       0.368040851    0.991248198    0.474915010
       0.346815557    0.522789793    0.467462462
       0.128081545    0.121831597    0.132188082
       0.089313934    0.617829443    0.122715631
       0.425153488    0.331579743    0.104939665
       0.408967963    0.768622902    0.122887813
       0.555977144    0.121695912    0.964507409
       0.686200790    0.741645370    0.170593869
       0.481090507    0.226209547    0.329445233
       0.565083978    0.560708478    0.327308500
       0.692407452    0.191782991    0.502607417
       0.664558796    0.670103029    0.552296839
       0.823952935    0.511067210    0.339367845
       0.821395412    0.991192178    0.369420376
       0.566122152    0.568185174    0.956727230
       0.709390985    0.383350806    0.107576907
       0.884089871    0.780830578    0.029361431
       0.880862927    0.246720409    0.037484778
       0.400185600    0.003287016    0.741025584
       0.370476688    0.476640384    0.703898983
       0.089864966    0.876560016    0.757804362
       0.085255974    0.414022643    0.746279790
       0.206059283    0.872167413    0.988689423
       0.187491783    0.374087630    0.982601612
       0.299551025    0.181721620    0.864147291
       0.332130978    0.690930300    0.854318432
       0.204517496    0.122128469    0.629533053
       0.238627297    0.671051644    0.621446085
       0.492601933    0.314193918    0.549343172
       0.506391194    0.800998039    0.394743545
       0.806045264    0.699267500    0.786188729
       0.938440772    0.038259574    0.867358116
       0.614777913    0.367260481    0.806587275
       0.608180242    0.874228067    0.739945843
       0.661621016    0.090758396    0.187866310
       0.661620137    0.894549642    0.980044772
       0.837932867    0.497112793    0.654486118
       0.804400949    0.196242374    0.754623454
       0.931957322    0.514979634    0.888729509
       0.865155190    0.982557367    0.634804250
       0.995376956    0.769400833    0.508529044
       0.024613416    0.286560488    0.518334667
