system
1.00000000
       8.974606000    0.000000000    0.000000000
      -4.069542592    7.781639712    0.000000000
      -0.478622641   -0.305175709   10.459667739
Al P O
12 12 48 
Direct
       0.178749336    0.167856378    0.286798755
       0.733797964    0.220702334    0.256520308
       0.346093618    0.863405510    0.256335540
       0.864526875    0.837083549    0.225792361
       0.223712086    0.000601560    0.889288511
       0.682783969    0.996053336    0.867382244
       0.459870487    0.373210677    0.550967662
       0.999080318    0.350964602    0.621129895
       0.288260744    0.497743762    0.973649690
       0.756425633    0.430999345    0.953501066
       0.508279501    0.724482266    0.546233158
       0.997055119    0.748628811    0.608325361
       0.283180348    0.002771120    0.447894314
       0.839036673    0.035969087    0.459308050
       0.968303968    0.172129473    0.059770256
       0.459579148    0.244417904    0.121334419
       0.204449407    0.503801785    0.389254413
       0.757960321    0.535368763    0.373000234
       0.058057214    0.721597959    0.055860998
       0.564466998    0.808359871    0.097260242
       0.221657740    0.292864055    0.765159790
       0.655965954    0.217772628    0.710043205
       0.269069556    0.737598510    0.758134881
       0.709524683    0.683272835    0.756359706
       0.360011340    0.304046500    0.200401689
       0.832726276    0.197410931    0.125679149
       0.201156201    0.956344451    0.306409820
       0.766894975    0.145398080    0.399331811
       0.311111998    0.191175776    0.443749539
       0.955121492    0.138754103    0.570859048
       0.121666182    0.330380472    0.320502441
       0.822299780    0.439510027    0.288029927
       0.030565015    0.065078990    0.145918738
       0.514953399    0.134829222    0.210093787
       0.121661509    0.342676910    0.048131963
       0.618757214    0.392350278    0.074610591
       0.545504586    0.868867314    0.231184829
       0.963833173    0.724866308    0.169318910
       0.220705458    0.648467083    0.306807099
       0.704717984    0.652846692    0.299520548
       0.387831899    0.543777280    0.440559160
       0.899579483    0.650757297    0.467716076
       0.423365825    0.952725791    0.436469289
       0.943552288    0.993460897    0.362515099
       0.243896936    0.790699211    0.095963233
       0.740415590    0.827014094    0.089510714
       0.045290800    0.834343460    0.948323602
       0.546472986    0.926087348    0.996372664
       0.281071490    0.350562549    0.633041523
       0.809472811    0.355318312    0.648286106
       0.153708942    0.101569092    0.779334725
       0.646782172    0.039269354    0.699673226
       0.354288065    0.130465190    0.010564776
       0.894202679    0.085711556    0.930440796
       0.360697496    0.389587999    0.869494738
       0.685847013    0.235465094    0.862775623
       0.078825071    0.342672554    0.777174765
       0.503259922    0.234922517    0.663943609
       0.097318424    0.493409726    0.501297878
       0.612718667    0.400483872    0.441896195
       0.368405096    0.727582207    0.649676061
       0.877296504    0.804853322    0.703581147
       0.281887863    0.650327089    0.876538357
       0.587175702    0.592482936    0.635519922
       0.442508497    0.617396207    0.086052111
       0.970228588    0.534455056    0.001578716
       0.331421090    0.926406235    0.794507788
       0.719570268    0.546437546    0.835257641
       0.080832006    0.649577311    0.712461259
       0.638182742    0.780694587    0.826985616
       0.172423878    0.924317924    0.556296710
       0.699800940    0.866184631    0.496182641
