system
1.00000000
       9.242897000    0.000000000    0.000000000
      -3.595492916    7.413054056    0.000000000
      -0.991215652    3.131774217   10.659992059
Al P O
12 12 48 
Direct
       0.173592964    0.143992547    0.233870242
       0.633007700    0.003726156    0.219374633
       0.125816903    0.565292198    0.261535404
       0.597096138    0.559749008    0.274103600
       0.637835386    0.097083843    0.948524647
       0.120203212    0.043416818    0.955614957
       0.360344949    0.828016902    0.596968951
       0.832363754    0.887269442    0.599573610
       0.657821885    0.549343549    0.903536687
       0.171664894    0.538772280    0.889388975
       0.395317176    0.235939469    0.587793547
       0.929673771    0.408597600    0.552683458
       0.537065684    0.674712093    0.451782851
       0.080918742    0.779925256    0.406172846
       0.941850924    0.199925052    0.066616621
       0.426529228    0.199098977    0.064187754
       0.617745055    0.192348933    0.417915895
       0.087430923    0.241740618    0.430302585
       0.875279415    0.640196023    0.118669946
       0.408169106    0.686199072    0.078496126
       0.117836774    0.878707896    0.744514449
       0.647519272    0.907314598    0.772631415
       0.205580045    0.383337532    0.724145746
       0.716927586    0.434344874    0.724117540
       0.070896024    0.116796593    0.092651262
       0.579020434    0.160141572    0.091735623
       0.402596674    0.699695141    0.495542248
       0.056788542    0.958651217    0.354609164
       0.696125666    0.749351903    0.509750081
       0.178527047    0.780592888    0.521185471
       0.610769692    0.045638313    0.358965112
       0.139621083    0.312251344    0.284163903
       0.276183360    0.692067712    0.144653172
       0.781849051    0.707844751    0.185246877
       0.041368028    0.410030594    0.028863620
       0.465489762    0.394246402    0.978642235
       0.931412854    0.504368951    0.211952692
       0.449687797    0.528995305    0.159273043
       0.619702922    0.354271041    0.310641962
       0.083402843    0.430653469    0.427738283
       0.754728974    0.244880287    0.503597392
       0.216636164    0.200727459    0.502014174
       0.575936235    0.763596497    0.303831185
       0.170703057    0.778000673    0.297978359
       0.356989384    0.163175759    0.193161322
       0.841550744    0.120931746    0.187292607
       0.015046611    0.811786491    0.044091445
       0.558217935    0.876451926    0.069951619
       0.592835907    0.340243236    0.642226829
       0.059992769    0.315986510    0.649185543
       0.079037513    0.691066971    0.841147557
       0.656247676    0.764693441    0.893098090
       0.317609050    0.060834448    0.993367776
       0.842187094    0.131642747    0.961326217
       0.101335305    0.011922932    0.806057095
       0.593412647    0.035763963    0.809624824
       0.812457540    0.003793531    0.704077358
       0.296695607    0.969511896    0.692222820
       0.458058673    0.099220709    0.500637655
       0.921802363    0.088693606    0.464313392
       0.533061860    0.823964371    0.678028556
       0.006604807    0.855942031    0.637349343
       0.158478437    0.299766096    0.870145932
       0.667059814    0.332715864    0.866816553
       0.355608479    0.665739871    0.949261801
       0.774808602    0.527817453    0.030828851
       0.249752299    0.590292178    0.725183322
       0.724599823    0.623505510    0.735922207
       0.876721572    0.445667714    0.693075828
       0.344132039    0.352932208    0.690648138
       0.490322610    0.472514148    0.442102051
       0.916861730    0.611777829    0.443147028
