system
1.00000000
       8.518344000    0.000000000    0.000000000
      -0.465461473    7.058651922    0.000000000
       2.715173214   -3.110691643   11.906660550
Al P O
12 12 48 
Direct
       0.223889789    0.348872340    0.299685540
       0.611157819    0.924917959    0.168032576
       0.089697575    0.893642974    0.306464798
       0.632817200    0.423172329    0.300498896
       0.163833433    0.657162605    0.972871734
       0.947214897    0.259614556    0.978686841
       0.301716111    0.605506358    0.614229095
       0.914030524    0.030129110    0.746012203
       0.361410810    0.297874280    0.940980552
       0.577966011    0.695478314    0.935282729
       0.435361536    0.060738610    0.607749641
       0.892172097    0.531928161    0.613405418
       0.391621343    0.141300906    0.385750597
       0.636848103    0.695396160    0.517295642
       0.871615014    0.646380809    0.158023417
       0.603232543    0.184826004    0.054196690
       0.133707176    0.813222224    0.528401058
       0.888541394    0.259425450    0.396611698
       0.095256233    0.105050896    0.089976309
       0.344359392    0.645159596    0.153354529
       0.921904350    0.770121911    0.859735987
       0.653436822    0.308660456    0.755960455
       0.180859670    0.309662526    0.760632017
       0.430016342    0.849921856    0.823921488
       0.333820299    0.538061893    0.243352190
       0.800243305    0.835139821    0.153136525
       0.213972042    0.126569969    0.370653987
       0.639266724    0.664468921    0.392256652
       0.400587728    0.170085670    0.505256271
       0.798616452    0.659901257    0.541861266
       0.420693545    0.347420587    0.355988047
       0.924133998    0.044351867    0.337887909
       0.987839460    0.681188304    0.235913645
       0.610896950    0.194888494    0.179223981
       0.163248610    0.177158512    0.978977753
       0.602857707    0.957256430    0.020730737
       0.268986013    0.843984501    0.199311166
       0.732250031    0.513958657    0.186686718
       0.124755157    0.784311722    0.408876116
       0.727177093    0.295147121    0.371544512
       0.028939641    0.980993711    0.604769259
       0.885564505    0.290676621    0.521743664
       0.496652882    0.973822726    0.309358662
       0.019266079    0.399765341    0.354038855
       0.198267098    0.182875263    0.174671338
       0.521737013    0.684003352    0.097561096
       0.090259094    0.885995196    0.063677194
       0.738563296    0.277773288    0.987720117
       0.191610266    0.416430557    0.670490069
       0.725034816    0.120261852    0.761086830
       0.786605165    0.677154411    0.926240652
       0.327037515    0.771838880    0.739230715
       0.448652602    0.269438001    0.052769253
       0.971777459    0.532135370    0.037549285
       0.076495651    0.685354110    0.861016913
       0.553277126    0.423019475    0.876407379
       0.003430428    0.271106469    0.816440554
       0.537143762    0.273413532    0.678113651
       0.104476598    0.607310363    0.558281759
       0.506476747    0.554699605    0.559944628
       0.256098187    0.110719443    0.714891601
       0.792568831    0.441240798    0.727169428
       0.913896388    0.760191858    0.734782516
       0.362017562    0.778003309    0.934985718
       0.269998056    0.532186624    0.052981170
       0.929098249    0.195892502    0.116410557
       0.255240219    0.422894398    0.860933517
       0.435003521    0.068965227    0.850175231
       0.922512543    0.997706147    0.893233319
       0.596144769    0.759055296    0.797487676
       0.311427043    0.827773191    0.543411362
       0.601044685    0.910237273    0.576511748
