system
1.00000000
       8.363447000    0.000000000    0.000000000
       2.460404159    6.897258092    0.000000000
      -2.358780988    3.841448564   12.072600110
Al P O
12 12 48 
Direct
       0.532013869    0.234393722    0.212611301
       0.963812856    0.657791079    0.189979892
       0.613947823    0.753526966    0.252054431
       0.030602337    0.179252582    0.244355610
       0.030281327    0.245002426    0.901477857
       0.549362648    0.858939682    0.869437009
       0.895879645    0.953354874    0.582239340
       0.327796436    0.641358784    0.497229176
       0.928625033    0.897885782    0.968129172
       0.411484906    0.532529986    0.881716515
       0.917784583    0.370709313    0.568567115
       0.483751959    0.094707229    0.609345343
       0.591935824    0.799858541    0.490449054
       0.149498864    0.278554148    0.411542044
       0.192950243    0.482482432    0.040521968
       0.583051468    0.056312906    0.036812298
       0.623659197    0.367919776    0.401971560
       0.937410894    0.857693930    0.359221547
       0.217431679    0.888815278    0.148261286
       0.712533247    0.487194672    0.084246237
       0.807921425    0.717543297    0.782977554
       0.182463540    0.552568496    0.667390436
       0.642345139    0.242228719    0.779552992
       0.204463305    0.041715964    0.740921247
       0.563165351    0.021676355    0.159685848
       0.309674693    0.378256960    0.157563478
       0.556672895    0.861058950    0.364522160
       0.022351433    0.398542842    0.463652768
       0.724879758    0.583840513    0.546595712
       0.085761754    0.397614849    0.280445429
       0.571157907    0.224664460    0.348815409
       0.120211394    0.089784042    0.397661828
       0.408716112    0.760263537    0.165627181
       0.746769813    0.641730873    0.141053736
       0.120096612    0.771346336    0.200046212
       0.609794816    0.588479766    0.959145260
       0.602830267    0.404147892    0.141973459
       0.211766825    0.057386111    0.200417683
       0.471437719    0.501226200    0.432899360
       0.875221670    0.066242891    0.270676898
       0.787870883    0.231260888    0.504255686
       0.133143737    0.729844490    0.393950690
       0.694877761    0.494073347    0.329426315
       0.338079503    0.233667807    0.466829383
       0.251958644    0.623197085    0.965255243
       0.893438285    0.324654419    0.099752900
       0.150958451    0.331489015    0.990341612
       0.787198325    0.967487747    0.055514098
       0.640997171    0.209645351    0.665254708
       0.323608706    0.459087942    0.609756011
       0.566280458    0.453453983    0.789640695
       0.176156682    0.145161705    0.828836709
       0.493716456    0.936194812    0.987125640
       0.103267380    0.986573313    0.019858744
       0.876191021    0.490435249    0.813511931
       0.246917035    0.497037222    0.791452824
       0.603636147    0.823462962    0.731704017
       0.034277033    0.481236166    0.646069513
       0.422860153    0.810217431    0.525538747
       0.868377278    0.876470119    0.456377202
       0.907588426    0.816721144    0.721754119
       0.132109308    0.781763044    0.611990820
       0.807123153    0.782685330    0.891164956
       0.014831502    0.101501683    0.666532063
       0.504937293    0.280748787    0.983423603
       0.023364326    0.631622697    0.060296876
       0.847229189    0.141190996    0.856281235
       0.338905870    0.820751695    0.809560245
       0.543970789    0.117168047    0.825706113
       0.297965819    0.113410003    0.661414573
       0.644027128    0.951466429    0.544673893
       0.851693328    0.744809940    0.292072941
