system
1.00000000
      11.026224000    0.000000000    0.000000000
      -1.159578313   12.953013754    0.000000000
       0.102618487    0.006327969    4.628513241
Al P O
12 12 48 
Direct
       0.774532131    0.015512144    0.032145254
       0.077659346    0.992549491    0.485469655
       0.030360571    0.319063203    0.453782682
       0.744393810    0.348773411    0.174393187
       0.883435149    0.648761165    0.313769213
       0.576770095    0.676638446    0.850226219
       0.273633898    0.020189965    0.016047519
       0.577854965    0.983117930    0.490785295
       0.541317160    0.306325433    0.657460510
       0.252973769    0.354125463    0.168057055
       0.385170728    0.655387200    0.312751983
       0.079011887    0.682910779    0.848764219
       0.030088191    0.130057642    0.021724863
       0.285727584    0.208702877    0.659207338
       0.881042497    0.455992524    0.673352701
       0.630918021    0.539012031    0.333628357
       0.201402582    0.799414521    0.348507024
       0.450234409    0.870387341    0.996450665
       0.528517142    0.122095609    0.002378657
       0.787279344    0.200496639    0.678486295
       0.377654437    0.466070628    0.672738874
       0.131447174    0.545625555    0.329204032
       0.701989205    0.793811179    0.346515549
       0.952479569    0.870697671    0.996064789
       0.024432676    0.590066908    0.163349241
       0.891557401    0.574255140    0.659881089
       0.616839107    0.418908292    0.313338421
       0.872429796    0.412235317    0.353098403
       0.133977900    0.073877851    0.183556913
       0.750755006    0.575814699    0.182834181
       0.764390090    0.419251978    0.843741329
       0.632846274    0.571297332    0.648473886
       0.313173827    0.758730494    0.481275104
       0.338730023    0.910746841    0.863367246
       0.207417383    0.919452924    0.351615994
       0.445257657    0.748152215    0.999955149
       0.690559378    0.755637622    0.033892448
       0.188724712    0.267068774    0.488483417
       0.564275379    0.911649904    0.827109168
       0.586566013    0.752869096    0.518445491
       0.462482232    0.908421535    0.307888296
       0.044801346    0.246048676    0.077773854
       0.267290533    0.090827053    0.664008773
       0.036907990    0.103690372    0.701116295
       0.904658016    0.233378481    0.535488653
       0.910471139    0.084723434    0.155821876
       0.782605346    0.235852888    0.999461291
       0.485682846    0.417621826    0.808151100
       0.527843390    0.590663450    0.162880495
       0.395850436    0.584299270    0.662079425
       0.120598707    0.427133312    0.284397789
       0.368176540    0.427729923    0.355388913
       0.630332800    0.072860281    0.176468557
       0.250254989    0.585030640    0.181966770
       0.262892900    0.428689581    0.838647507
       0.128822959    0.573654027    0.648376945
       0.814472101    0.753795947    0.476644978
       0.838448215    0.908496718    0.866474066
       0.709542517    0.915588734    0.348458707
       0.945440281    0.748976989    0.994135041
       0.190293350    0.761332338    0.034890396
       0.686247439    0.257710405    0.512765159
       0.065811667    0.914832864    0.822993212
       0.086338821    0.754049503    0.514807037
       0.963530116    0.908861388    0.310931790
       0.551171368    0.243028061    0.010250710
       0.764483875    0.084933705    0.676839043
       0.532838937    0.093520335    0.685632269
       0.408221471    0.242920880    0.510869747
       0.407828260    0.089665779    0.149920059
       0.285607501    0.240958783    0.978577205
       0.992607547    0.404880122    0.771591324
