system
1.00000000
       8.646513000    0.000000000    0.000000000
      -0.027723357    6.087697874    0.000000000
       0.583312348    1.816047815   12.550505788
Al P O
12 12 48 
Direct
       0.201340801    0.105581452    0.248424569
       0.728538924    0.572888880    0.224962870
       0.251102721    0.564941561    0.228858932
       0.608565831    0.074267140    0.280174319
       0.217445273    0.903505985    0.911803148
       0.694247132    0.418980567    0.888942960
       0.388739542    0.005363516    0.581515654
       0.889352490    0.501722839    0.579803689
       0.206761868    0.403256544    0.910897082
       0.786130754    0.894217484    0.975217957
       0.384228352    0.500960893    0.584218279
       0.884237137    0.003073688    0.578018008
       0.317332880    0.801734010    0.376773580
       0.629433791    0.302421892    0.455628681
       0.884165666    0.383699178    0.040976234
       0.460052303    0.732800588    0.063736597
       0.129580366    0.288891016    0.454417573
       0.806686498    0.806836056    0.367288331
       0.009536468    0.845819184    0.120885540
       0.436824588    0.236952765    0.072275232
       0.950512225    0.184725403    0.792356271
       0.638578175    0.719162523    0.698216409
       0.138460141    0.718989947    0.702683464
       0.454350139    0.200396443    0.787529953
       0.341961365    0.815464409    0.146979593
       0.836035824    0.373681174    0.157327246
       0.155229341    0.842968717    0.334222873
       0.632001533    0.340670320    0.328288394
       0.323817093    0.781543843    0.496953648
       0.790979859    0.283204304    0.503437817
       0.394541000    0.025394481    0.322364346
       0.879695280    0.615160536    0.320630128
       0.057562666    0.052354727    0.163959658
       0.558205004    0.584593389    0.144339061
       0.044305566    0.879734943    0.999855255
       0.532551285    0.392349088    0.992523508
       0.316824706    0.325951599    0.160279493
       0.828253946    0.823071435    0.126980284
       0.150690529    0.320009212    0.328108471
       0.635896045    0.779076514    0.322465337
       0.289429405    0.270035806    0.505701357
       0.823257286    0.776448531    0.489199672
       0.370227592    0.591087405    0.337106665
       0.827867627    0.047872842    0.319461358
       0.077140329    0.631268042    0.170147386
       0.551739441    0.112231795    0.146733086
       0.055037586    0.397243275    0.011257184
       0.574022421    0.887455579    0.994023272
       0.215065415    0.939854114    0.663929479
       0.715261713    0.524216200    0.655380764
       0.868107261    0.969705886    0.839458087
       0.368978306    0.397907465    0.821551752
       0.328753037    0.667764957    0.986619914
       0.801953704    0.192604053    0.995740347
       0.116879552    0.172173404    0.839473538
       0.624601186    0.670995731    0.818203881
       0.954479823    0.212374267    0.667021973
       0.474708562    0.735122882    0.649807920
       0.052927662    0.491133693    0.487493599
       0.552184767    0.075140752    0.483462336
       0.208684900    0.517671934    0.663018996
       0.712851900    0.943239782    0.659073700
       0.885104795    0.400469697    0.817970544
       0.380419328    0.977010720    0.825262946
       0.309023979    0.149257540    0.004153368
       0.803753710    0.589212735    0.976607793
       0.140581108    0.682417114    0.828920249
       0.618399165    0.207355313    0.820874933
       0.975075926    0.734695635    0.654890964
       0.448841296    0.230423966    0.662070718
       0.045065136    0.071193902    0.485754877
       0.546844623    0.494263281    0.492371632
