system
1.00000000
       8.238749000    0.000000000    0.000000000
      -3.727633411    8.260474058    0.000000000
       4.098922228    0.542244445   10.733942098
Al P O
12 12 48 
Direct
       0.282076989    0.186920260    0.259577520
       0.726717640    0.254947762    0.230251373
       0.300711938    0.737830678    0.271472114
       0.812604005    0.803770353    0.234964902
       0.995944991    0.041917774    0.859714227
       0.575874357    0.014420692    0.894025331
       0.353985079    0.250067345    0.576627912
       0.821887199    0.335494273    0.556409006
       0.073196950    0.500744331    0.941541974
       0.456546257    0.508511816    0.938610890
       0.284434996    0.745472972    0.566002520
       0.795029210    0.687328939    0.624339945
       0.660823887    0.032787302    0.430656380
       0.138538133    0.935123895    0.454857172
       0.088687902    0.224646284    0.077963307
       0.648719413    0.338834140    0.044837499
       0.729215287    0.500352105    0.400327063
       0.254155475    0.476357539    0.401966179
       0.180219415    0.814536628    0.086793037
       0.623823122    0.822059854    0.069491641
       0.988048559    0.271199856    0.730815419
       0.431482189    0.198357971    0.768181909
       0.926132353    0.681081194    0.799523678
       0.442615048    0.706335656    0.745641955
       0.562150887    0.450525957    0.035365712
       0.877443129    0.163866145    0.149341535
       0.589868178    0.117458328    0.362627911
       0.182964923    0.993452197    0.324179780
       0.810029476    0.154868770    0.481219128
       0.242298749    0.059637712    0.526547786
       0.845111330    0.416473595    0.308787242
       0.257108996    0.308782633    0.384250084
       0.195250940    0.223390477    0.159586442
       0.529257467    0.241728412    0.181611762
       0.176350991    0.406427518    0.032401948
       0.835660994    0.414039193    0.074075649
       0.523512848    0.886795507    0.191034923
       0.047450647    0.900039161    0.144493768
       0.755963580    0.650644952    0.339686686
       0.334122692    0.559654070    0.271482632
       0.799993893    0.533168526    0.513771719
       0.364436863    0.598597889    0.477852614
       0.757769296    0.935301775    0.341984551
       0.220697842    0.798696671    0.429140807
       0.146610222    0.706788407    0.195816406
       0.741478598    0.753407220    0.104102604
       0.378267485    0.947978014    0.037705006
       0.738181430    0.965246199    0.969227214
       0.181574394    0.334291756    0.626636076
       0.558811472    0.267785458    0.629107189
       0.895551159    0.082544816    0.750101589
       0.465986887    0.062774586    0.800891035
       0.655730002    0.217322869    0.947902835
       0.109187809    0.113333565    0.971891229
       0.021065623    0.315299073    0.855530134
       0.460384584    0.336794278    0.850411062
       0.855333097    0.325336926    0.699319087
       0.242743992    0.139660213    0.741913165
       0.523674876    0.386516214    0.449960709
       0.052275948    0.456453589    0.463368091
       0.023119077    0.698199436    0.651377182
       0.570252459    0.661272778    0.628949347
       0.934646746    0.549920791    0.860699260
       0.340841442    0.560637042    0.842279883
       0.481331548    0.690560130    0.021440430
       0.134649276    0.705360173    0.985334622
       0.997604364    0.846506117    0.847996967
       0.567730665    0.846954690    0.798574937
       0.720126437    0.631930112    0.795874645
       0.285388852    0.723745763    0.717716905
       0.490240356    0.927383966    0.537040157
       0.928122857    0.862999066    0.524727204
