system
1.00000000
       8.680599000    0.000000000    0.000000000
       2.873242481    6.838310702    0.000000000
      -2.417668414    3.681407892   11.795433381
Al P O
12 12 48 
Direct
       0.533334625    0.262035087    0.210665382
       0.953573709    0.680775008    0.188214617
       0.605265540    0.783189871    0.243241336
       0.002362381    0.196345258    0.253520601
       0.040118119    0.221947092    0.909997807
       0.521212494    0.887147669    0.853736104
       0.822115193    0.987085606    0.598522855
       0.317440429    0.674182246    0.496392270
       0.952178812    0.865275671    0.962650345
       0.464998321    0.510458187    0.864610382
       0.901038048    0.419722471    0.573160140
       0.415100210    0.049583689    0.605077514
       0.565661733    0.856506614    0.467726975
       0.113402693    0.319234778    0.413833048
       0.167517693    0.473971354    0.039681803
       0.614410999    0.071510703    0.033510655
       0.622405780    0.393299777    0.408324874
       0.923334427    0.883100806    0.371178442
       0.211538324    0.887000834    0.155869439
       0.694686057    0.512643658    0.085034137
       0.787516276    0.702001265    0.786062983
       0.264178418    0.401893099    0.703395679
       0.731050670    0.265754569    0.746113093
       0.173476120    0.977847337    0.739892626
       0.570039809    0.052273625    0.148214614
       0.307602248    0.386546907    0.151802140
       0.525158910    0.931078597    0.340000982
       0.980430023    0.457541440    0.456844209
       0.715083552    0.651842686    0.515097995
       0.065806720    0.416759622    0.280756632
       0.561449298    0.262960389    0.349507464
       0.091182329    0.127269365    0.406904454
       0.400146486    0.806164839    0.157539394
       0.728143493    0.666091322    0.143778404
       0.144455021    0.734813611    0.200382388
       0.608452862    0.616041251    0.955642685
       0.570828323    0.453200533    0.133555550
       0.182966118    0.044432532    0.220042000
       0.478253252    0.512024239    0.453304062
       0.844113296    0.099902230    0.283259533
       0.793160868    0.250982353    0.509237602
       0.119696287    0.769659653    0.393301592
       0.671258845    0.529891243    0.330377073
       0.295201211    0.275050441    0.480255709
       0.157540649    0.661214794    0.951833363
       0.868753942    0.328972532    0.108720550
       0.179698405    0.295291351    0.994973739
       0.815763840    0.942500436    0.063868995
       0.832812464    0.358999152    0.691708440
       0.407074335    0.170683047    0.727155179
       0.583113102    0.428281214    0.769524086
       0.161182310    0.105550858    0.822666595
       0.504078328    0.001154095    0.961198624
       0.096206614    0.987648026    0.028167036
       0.871557324    0.484371809    0.860922112
       0.287946654    0.454248551    0.813772863
       0.580300700    0.801213576    0.731043695
       0.085228216    0.421069704    0.660734276
       0.407108727    0.852450380    0.510346721
       0.883250095    0.882924033    0.481692139
       0.866603881    0.737445036    0.695056250
       0.291737585    0.553340437    0.616903023
       0.772024008    0.838750807    0.869490195
       0.020565413    0.934570062    0.707353153
       0.575692192    0.287636272    0.980608648
       0.991233487    0.593851044    0.063834682
       0.865679686    0.126530808    0.866034479
       0.347393939    0.786980976    0.815015877
       0.680595701    0.142298286    0.676495707
       0.213707832    0.043276558    0.629766772
       0.596618461    0.002492073    0.532320650
       0.844238987    0.776276886    0.295732940
