system
1.00000000
       8.402713000    0.000000000    0.000000000
       0.488329457    8.585527561    0.000000000
      -3.673579163   -1.486604403    9.474766212
Al P O
12 12 48 
Direct
       0.122929878    0.194797344    0.411109285
       0.122932429    0.694800327    0.911110098
       0.891292741    0.953168441    0.942558797
       0.891299753    0.453167699    0.442561681
       0.789590615    0.194805883    0.744441411
       0.789596699    0.694801816    0.244444947
       0.456265502    0.194798038    0.077776945
       0.456269445    0.694799564    0.577778889
       0.557959935    0.453175346    0.775893866
       0.557955123    0.953173949    0.275892042
       0.224626929    0.453167619    0.109225886
       0.224622197    0.953167105    0.609226877
       0.566755286    0.958828342    0.848769783
       0.566764918    0.458825563    0.348774186
       0.447462717    0.689151910    0.004895663
       0.447458872    0.189145983    0.504895864
       0.780798838    0.689145149    0.671561321
       0.780796452    0.189141790    0.171561680
       0.233426215    0.958821511    0.182106908
       0.233432836    0.458821683    0.682111718
       0.114132486    0.689139429    0.338232758
       0.114124158    0.189143016    0.838231615
       0.900094080    0.958824906    0.515440805
       0.900093801    0.458828510    0.015439329
       0.313866935    0.302718093    0.428435928
       0.313871549    0.802726774    0.928444834
       0.700349472    0.845250723    0.925223339
       0.426272475    0.367117127    0.216648589
       0.480425108    0.055719416    0.937409910
       0.700356018    0.345247086    0.425227552
       0.921292218    0.780854956    0.803684614
       0.480431322    0.555717534    0.437411334
       0.367017489    0.845245139    0.258565273
       0.092940752    0.367113837    0.549987970
       0.147092364    0.055716838    0.270744592
       0.367022269    0.345258270    0.758579122
       0.147095390    0.555721141    0.770746185
       0.345247737    0.059669537    0.135988962
       0.668975789    0.588305038    0.717682536
       0.867126080    0.092247793    0.082922836
       0.033674393    0.845252857    0.591897652
       0.921288817    0.280848658    0.303687643
       0.867125654    0.592247533    0.582924721
       0.678580901    0.559675558    0.302652709
       0.587955418    0.780856014    0.137020261
       0.345250316    0.559667973    0.635984645
       0.335640235    0.588295920    0.051013484
       0.587950557    0.280860527    0.637018050
       0.647210114    0.802726152    0.595105665
       0.002304744    0.088295480    0.884350794
       0.759598724    0.867121940    0.383315711
       0.033679519    0.345257757    0.091897608
       0.335647857    0.088295453    0.551020853
       0.092933049    0.867113731    0.049985433
       0.254623784    0.780849474    0.470356681
       0.254616999    0.280847937    0.970358111
       0.002312942    0.588291132    0.384348964
       0.980538063    0.302721023    0.761777487
       0.426265409    0.867114386    0.716650092
       0.647209011    0.302720427    0.095103893
       0.200462758    0.592248526    0.249592862
       0.200456385    0.092252506    0.749590333
       0.980541303    0.802724721    0.261783719
       0.759601590    0.367124124    0.883315251
       0.533794692    0.092255122    0.416257418
       0.533794159    0.592263292    0.916257651
       0.011918859    0.059671113    0.469320241
       0.011912129    0.559679368    0.969316937
       0.813760767    0.055728773    0.604077693
       0.813759428    0.555728385    0.104075760
       0.678570586    0.059680609    0.802646784
       0.668973893    0.088297278    0.217681797
