Mg12 V24 O60                            
    1.000000000000000     
     8.8098297119000009    0.0000000000000000    0.0000000000000000
     0.0000000000000000   10.7665653229000000    0.0000000000000000
     0.0000000000000000    0.0000000000000000   11.6017198563000008
   Mg   V    O 
    12    24    60
Direct
  0.8982431037832476  0.8344097989247795  0.0366230395513054
  0.1053596974887882  0.0020296888916830  0.5270723730797441
  0.3947585847889649  0.1721485159261721  0.0315181367503128
  0.6111800033770364  0.3700237265422018  0.4961200747934014
  0.0962128722456919  0.6625306252947285  0.4616495037369496
  0.0716116945674258  0.3336104772409380  0.4911231325452103
  0.8857736357175900  0.1848324099882269  0.9645268333690212
  0.5986160457821781  0.0178679076765244  0.4862549427561801
  0.5909839757293197  0.6746887045865974  0.5332017016412172
  0.3913443401694000  0.8224246803888411  0.9527909476410013
  0.8914052753299789  0.5159401296602738  0.0083917244682421
  0.3854520078890508  0.4919768957883242  0.0106582865818756
  0.2041215368373973  0.9824038753466133  0.1514599608580176
  0.8114445204585234  0.1988459240427338  0.3457914710907705
  0.7922355397528006  0.1740759678842110  0.6570830356775357
  0.1823006449432438  0.9985983876053732  0.8555040930849259
  0.1634292956959243  0.3319257209878745  0.1509772227288667
  0.7944632744795053  0.5188702502592700  0.3396069369523980
  0.8135953281865855  0.5069831399791949  0.6555943348371948
  0.2070442846986494  0.3221228062951239  0.8415750681625536
  0.2232644303881960  0.6696552504651403  0.1617659581148335
  0.7812551625838905  0.8347682431958531  0.3502686947791158
  0.8033925324828549  0.8497889066786556  0.6560713621936447
  0.1738753973348108  0.6569721366781850  0.8473956917022191
  0.6980351974922242  0.0144224640899884  0.1613138811879940
  0.2868482848362098  0.1622253036105911  0.3424404448921510
  0.3212132829775682  0.1533111740557864  0.6533148755859240
  0.6951940562403800  0.0021490566064242  0.8503856145219055
  0.7208204940844092  0.3375883066477350  0.1369900063891514
  0.3183960292161171  0.4788483929156906  0.3323944932202216
  0.3060704472493865  0.5061233444368989  0.6483585063188112
  0.6728183675240154  0.3531978462747150  0.8374032900421697
  0.6678224792640546  0.6657889210864796  0.1555115599374589
  0.3374332866414828  0.8438998913111143  0.3493699655889102
  0.2870366648126534  0.8162138472586213  0.6672662657714055
  0.7055673557341110  0.6806005193190082  0.8510033626067320
  0.0315027626870177  0.9472104574542044  0.1216452750692766
  0.9891883914860236  0.1972222602967716  0.3917233999455551
  0.9746443841752310  0.1540239087178215  0.6344253354504594
  0.0113047103690579  0.0375965490865963  0.8858710393017982
  0.9880827739354729  0.3728535409180107  0.1139922156921868
  0.9709766785624044  0.5048315661489898  0.3736676625823316
  0.9929362723884009  0.4901557847937961  0.6239036550244169
  0.0289792209805090  0.2880143892505219  0.8658815153836404
  0.0452452577601111  0.6870940936334687  0.1294764419783453
  0.9536554566751340  0.7810308871760725  0.3796201139429533
  0.9818947426312078  0.8772933519067334  0.6179895762867789
  0.0013330016312800  0.6234994541812291  0.8705354025096717
  0.5201908651588812  0.0404510370001705  0.1182918149234130
  0.4666212455247351  0.1434882810149824  0.3694493509067924
  0.4942784725137743  0.1349892841794916  0.6117968569575074
  0.5141240292961063  0.9776280796789261  0.8829169657557457
  0.5402277462300653  0.2946673648910146  0.1217277299077938
  0.4990350336657428  0.4519508686705334  0.3687050633236730
  0.4853455692387137  0.5216029688882651  0.6091391536183425
  0.4953002839659430  0.3529609293807045  0.8807269798431012
  0.4968420430461518  0.6255101407512603  0.1248895594473491
  0.5184504805812929  0.8836904688788116  0.3730691965603797
  0.4702406025264286  0.8010888066267363  0.6523724317023616
  0.5228929617337544  0.7016404897866627  0.8683601446985529
  0.2191630218301398  0.9884551936838625  0.3390018454036344
  0.7877782694316063  0.1783855994326004  0.1731626762468446
  0.7306019416038633  0.1791649753822705  0.8193151823365484
  0.2280486171374721  0.9909580211248589  0.6779520747168370
  0.2086239204912109  0.3256216909027387  0.3251281739245586
  0.7840796273481889  0.5195617273094524  0.1676514747512947
  0.7629919013566563  0.5049761624351682  0.8249031602344193
  0.2542836027308821  0.3289584660809306  0.6836689046158796
  0.2588295011080342  0.6659351753977261  0.3319991443664236
  0.7315315890107487  0.8362367758615981  0.1648428891340374
  0.7792048994096383  0.8429523243070297  0.8269378501468455
  0.2088420113919201  0.6547505635863312  0.6830298377854663
  0.7144411334531706  0.0063931227704002  0.6613275134986537
  0.7215034924222575  0.8338364274569985  0.5101327945498195
  0.7463087486103664  0.0099535141623839  0.3330203506664631
  0.2324057588797062  0.1674512824048444  0.1565977190696857
  0.2881210075756692  0.1545575784736152  0.8397954840494488
  0.7314676049705870  0.3512947608573446  0.3069723835690681
  0.2679855876698486  0.4902026734467335  0.1717382237338246
  0.2641891973730208  0.4966948147523826  0.8188469415113936
  0.7203479304855779  0.3456766585408739  0.6720837735022137
  0.6941098861924386  0.6768454006867943  0.3125565593995669
  0.3167819575812015  0.8300817983427486  0.1760427508636319
  0.2383379237121366  0.8277854965236786  0.8282710609858283
  0.7478631830726978  0.6708690789918159  0.6699268059512659
  0.2889876870329440  0.9886645075918516  0.0017894172915319
  0.7223835749788636  0.1855636719617232  0.4965928525845398
  0.2737342847848357  0.3276786867126814  0.0064943777416727
  0.7243389170965686  0.5186149690792279  0.4958300343866978
  0.2852913238379416  0.6665630695858001  0.0005936712795002
  0.7871706072870082  0.0215599742198301  0.0090446536131831
  0.2283852914669353  0.1794446901914429  0.5047526593725395
  0.7900956614651321  0.3510063556204050  0.9869113846020966
  0.2345955317116703  0.4977618896956511  0.4902061083314031
  0.7633269509828913  0.6833621190211427  0.0007418323362534
  0.2457099832113690  0.8353224992828011  0.4986383270511886
 
  0.20323135E-02  0.13119799E-02 -0.12338035E-01
  0.21053919E-02  0.22675043E-02  0.39867622E-02
  0.43608299E-02 -0.28786614E-02  0.22079616E-02
  0.34364634E-02  0.26017376E-02  0.56020494E-02
 -0.66472984E-02  0.50105051E-02 -0.73012967E-02
 -0.19338311E-02  0.13197155E-02  0.41730618E-02
 -0.97310586E-03 -0.13538741E-02  0.14757356E-02
 -0.26415903E-02  0.69923833E-02  0.38475028E-02
 -0.47908263E-02 -0.35291951E-02  0.82072064E-02
 -0.25250034E-02 -0.51121444E-02  0.10932427E-02
 -0.34057167E-02  0.43105798E-02  0.39095588E-02
  0.39618383E-02  0.34820707E-02  0.14376463E-03
  0.70620006E-02 -0.64038035E-03  0.11619937E-02
 -0.18835445E-02  0.21608483E-02  0.35184580E-03
 -0.47657168E-03 -0.41543212E-04 -0.30503301E-03
 -0.19290155E-02  0.50538771E-02  0.32785946E-02
 -0.67064618E-02 -0.14722706E-02  0.23459255E-02
 -0.10131026E-02  0.72775687E-03 -0.48457711E-02
 -0.40704033E-03 -0.37772073E-02 -0.16002713E-02
 -0.54563903E-02 -0.13753609E-02 -0.50022620E-04
  0.72258507E-02 -0.27895305E-02 -0.12317777E-02
  0.27898607E-02 -0.37195354E-02  0.30624387E-02
 -0.30787171E-02 -0.24452820E-03  0.45410564E-03
  0.40730591E-02 -0.19981312E-02 -0.58873033E-04
 -0.84387998E-03  0.21394021E-02 -0.30854288E-02
 -0.91141740E-03  0.73480718E-03 -0.85698161E-03
  0.28236581E-02 -0.23028963E-02 -0.47200123E-02
 -0.53565501E-02  0.35377633E-02  0.30527384E-02
 -0.80973919E-03  0.16528190E-02  0.72062621E-04
  0.49344657E-02 -0.11130785E-02 -0.24484181E-04
  0.60583130E-02 -0.63165545E-02 -0.35430965E-02
 -0.11145055E-02  0.28688667E-03  0.93142354E-02
 -0.20858907E-02 -0.62380941E-02  0.31295356E-02
  0.67435914E-02 -0.24733897E-02  0.94599117E-03
 -0.19009807E-02 -0.16692838E-03 -0.14731768E-02
 -0.34651199E-02  0.47535109E-03 -0.19024537E-03
 -0.41802118E-02  0.51047454E-02  0.33735315E-03
  0.27392565E-02 -0.48491430E-02 -0.47688111E-02
 -0.55835993E-02  0.67822257E-02 -0.60615933E-02
 -0.42779143E-02  0.38291752E-02  0.30276724E-02
  0.16572289E-04  0.37937120E-03 -0.64191237E-02
  0.20492737E-02 -0.65662246E-02  0.34403160E-02
  0.54625725E-02  0.52491882E-03  0.13960838E-02
  0.10282858E-02 -0.81662925E-02  0.32023361E-03
 -0.38286690E-02 -0.75000530E-02  0.25070593E-02
 -0.94256567E-02 -0.93467941E-02 -0.88772833E-03
  0.10208536E-01  0.19972514E-02  0.14302391E-02
  0.16651194E-02 -0.65394937E-02  0.30864444E-02
  0.69314170E-02  0.46292213E-02 -0.36926638E-02
  0.76086184E-02 -0.27691612E-03  0.32363692E-02
 -0.30421692E-02  0.33549032E-02  0.28895710E-02
  0.19171298E-02  0.11127867E-01 -0.21101279E-02
  0.64721683E-02  0.51199227E-02 -0.28542944E-02
 -0.92384926E-03  0.58975643E-02 -0.54010232E-02
  0.95818531E-02  0.12393526E-01 -0.23006991E-02
 -0.24233692E-02 -0.74189405E-05 -0.44382965E-02
 -0.48921559E-02 -0.39439449E-02 -0.50270049E-02
 -0.59964162E-02 -0.68873427E-03 -0.41640467E-02
  0.18212862E-02  0.63959942E-03 -0.19586938E-02
 -0.47593873E-02  0.49319507E-02 -0.20092305E-02
  0.25680165E-02 -0.72301748E-02 -0.18319504E-02
  0.11201040E-01  0.80811759E-02 -0.15701351E-03
 -0.28301171E-02 -0.77815352E-02  0.21620095E-02
  0.19839338E-02  0.27656360E-02 -0.44952379E-02
 -0.68947960E-02  0.35244398E-02  0.42228294E-02
  0.95451325E-03 -0.67806664E-02  0.45250142E-02
  0.76954501E-02  0.69165297E-02 -0.90623928E-03
  0.25207125E-02 -0.14822447E-02 -0.58307271E-02
 -0.16132875E-01  0.57726944E-02 -0.53573487E-03
 -0.12642493E-02  0.57564866E-03 -0.28616711E-03
 -0.79195507E-02  0.32602482E-02 -0.17083730E-02
  0.81530606E-02  0.74360289E-02 -0.58551628E-02
  0.98199096E-02 -0.38154846E-02  0.65233320E-02
  0.57049591E-02 -0.61237758E-02  0.27925278E-02
  0.33902389E-02  0.64878371E-02 -0.58963957E-03
 -0.12734161E-01 -0.29717368E-02  0.11934090E-01
 -0.74794103E-03 -0.79018490E-02 -0.12457349E-02
 -0.74779792E-02 -0.10070899E-02 -0.51274329E-02
  0.15403115E-03  0.10510114E-01 -0.48825373E-02
 -0.24045058E-02  0.41716524E-02  0.74960459E-04
 -0.45406767E-02 -0.11979325E-01  0.60296674E-02
 -0.78656217E-03  0.84739105E-02  0.17928044E-01
  0.72201346E-02  0.25997794E-02 -0.64518731E-02
 -0.44566789E-02  0.43959448E-02 -0.31792611E-03
  0.56091937E-02  0.88851136E-02 -0.51044994E-02
 -0.20850383E-02 -0.65091182E-02 -0.60076851E-02
 -0.34979594E-02  0.34117516E-02  0.12969242E-01
 -0.40174528E-02 -0.38823426E-02  0.59627826E-03
 -0.30150077E-02  0.33757511E-02  0.29950606E-03
  0.34681683E-03 -0.88714144E-03 -0.60878888E-02
  0.34517713E-02  0.28539596E-02  0.84325279E-02
  0.63588223E-02 -0.61991565E-02  0.83986782E-03
 -0.83442398E-02 -0.57079147E-02 -0.63891383E-02
 -0.68721445E-02  0.29271599E-03 -0.12796761E-01
  0.22641715E-02 -0.78370610E-03 -0.59466396E-02
  0.55202604E-02  0.35062513E-02 -0.56567080E-02
 
            1
    2.000000000000000     
  0.67803009E+01 -0.26880751E-01  0.11241113E-17  0.00000000E+00
  0.89870448E+00  0.83465351E+00  0.34496107E-01
  0.10583766E+00  0.24509011E-02  0.52775964E+00
  0.39574858E+00  0.17161378E+00  0.31898763E-01
  0.61196015E+00  0.37050703E+00  0.49708580E+00
  0.94703808E-01  0.66346138E+00  0.46039085E+00
  0.71172678E-01  0.33385563E+00  0.49184252E+00
  0.88555272E+00  0.18458091E+00  0.96478123E+00
  0.59801635E+00  0.19166815E-01  0.48691821E+00
  0.58989637E+00  0.67403312E+00  0.53461653E+00
  0.39077112E+00  0.82147505E+00  0.95297941E+00
  0.89063211E+00  0.51674086E+00  0.90656864E-02
  0.38635142E+00  0.49262373E+00  0.10683070E-01
  0.20572475E+00  0.98228492E+00  0.15166027E+00
  0.81101692E+00  0.19924732E+00  0.34585213E+00
  0.79212735E+00  0.17406825E+00  0.65703045E+00
  0.18186272E+00  0.99953720E+00  0.85606928E+00
  0.16190680E+00  0.33165223E+00  0.15138163E+00
  0.79423328E+00  0.51900544E+00  0.33877158E+00
  0.81350292E+00  0.50628148E+00  0.65531847E+00
  0.20580558E+00  0.32186732E+00  0.84156644E+00
  0.22490484E+00  0.66913707E+00  0.16155361E+00
  0.78188851E+00  0.83407730E+00  0.35079662E+00
  0.80269360E+00  0.84974348E+00  0.65614964E+00
  0.17480006E+00  0.65660096E+00  0.84738554E+00
  0.69784362E+00  0.14819880E-01  0.16078199E+00
  0.28664138E+00  0.16236180E+00  0.34229271E+00
  0.32185431E+00  0.15288339E+00  0.65250120E+00
  0.69397802E+00  0.28062324E-02  0.85091187E+00
  0.72063667E+00  0.33789533E+00  0.13700243E+00
  0.31951625E+00  0.47864163E+00  0.33239027E+00
  0.30744580E+00  0.50494998E+00  0.64774772E+00
  0.67256535E+00  0.35325114E+00  0.83900895E+00
  0.66734894E+00  0.66463013E+00  0.15605106E+00
  0.33896421E+00  0.84344043E+00  0.34953304E+00
  0.28660511E+00  0.81618284E+00  0.66701231E+00
  0.70478071E+00  0.68068882E+00  0.85097057E+00
  0.30553775E-01  0.94815872E+00  0.12170343E+00
  0.98981026E+00  0.19632148E+00  0.39090131E+00
  0.97337680E+00  0.15528378E+00  0.63338039E+00
  0.10333542E-01  0.38307858E-01  0.88639297E+00
  0.98808654E+00  0.37292401E+00  0.11288563E+00
  0.97144190E+00  0.50361182E+00  0.37426073E+00
  0.99417638E+00  0.49025329E+00  0.62414432E+00
  0.29212662E-01  0.28649742E+00  0.86593672E+00
  0.44376077E-01  0.68570088E+00  0.12990863E+00
  0.95151565E+00  0.77929462E+00  0.37946708E+00
  0.98421228E+00  0.87766436E+00  0.61823613E+00
  0.17110156E-02  0.62228468E+00  0.87106747E+00
  0.52176443E+00  0.41310962E-01  0.11765524E+00
  0.46834855E+00  0.14343684E+00  0.37000726E+00
  0.49358784E+00  0.13561249E+00  0.61229498E+00
  0.51455925E+00  0.97969520E+00  0.88255320E+00
  0.54169705E+00  0.29561844E+00  0.12123568E+00
  0.49882530E+00  0.45304640E+00  0.36777399E+00
  0.48752083E+00  0.52390519E+00  0.60874254E+00
  0.49475013E+00  0.35295955E+00  0.87996187E+00
  0.49573143E+00  0.62477751E+00  0.12402296E+00
  0.51708918E+00  0.88356253E+00  0.37235136E+00
  0.47065407E+00  0.80120762E+00  0.65203478E+00
  0.52181249E+00  0.70255665E+00  0.86801378E+00
  0.21974601E+00  0.98711211E+00  0.33868604E+00
  0.79032112E+00  0.17988676E+00  0.17313561E+00
  0.72995945E+00  0.17771948E+00  0.81968789E+00
  0.22849901E+00  0.99147177E+00  0.67717715E+00
  0.20705867E+00  0.32627639E+00  0.32585614E+00
  0.78429632E+00  0.51830215E+00  0.16843153E+00
  0.76473892E+00  0.50626098E+00  0.82474694E+00
  0.25485585E+00  0.32868312E+00  0.68266376E+00
  0.25516703E+00  0.66700751E+00  0.33190679E+00
  0.73124458E+00  0.83634371E+00  0.16479356E+00
  0.77740701E+00  0.84355795E+00  0.82664335E+00
  0.21069291E+00  0.65613188E+00  0.68202048E+00
  0.71667044E+00  0.56843573E-02  0.66245206E+00
  0.72279863E+00  0.83269887E+00  0.51061419E+00
  0.74707840E+00  0.11158696E-01  0.33291870E+00
  0.22951486E+00  0.16689925E+00  0.15865502E+00
  0.28795121E+00  0.15308973E+00  0.83958073E+00
  0.72976996E+00  0.35110768E+00  0.30608847E+00
  0.26802056E+00  0.49215503E+00  0.17089653E+00
  0.26364333E+00  0.49746974E+00  0.81885986E+00
  0.71931711E+00  0.34345138E+00  0.67312322E+00
  0.69393132E+00  0.67841952E+00  0.31564714E+00
  0.31842107E+00  0.83056473E+00  0.17493052E+00
  0.23732617E+00  0.82860209E+00  0.82821625E+00
  0.74913658E+00  0.67251958E+00  0.66904685E+00
  0.28851434E+00  0.98745537E+00  0.75376307E-03
  0.72158947E+00  0.18619744E+00  0.49882860E+00
  0.27282225E+00  0.32695750E+00  0.65971691E-02
  0.72365445E+00  0.51924205E+00  0.49588167E+00
  0.28537006E+00  0.66639827E+00  0.99954419E+00
  0.78795423E+00  0.22090127E-01  0.10498322E-01
  0.22982887E+00  0.17829313E+00  0.50489744E+00
  0.78820136E+00  0.34994605E+00  0.98580997E+00
  0.23303542E+00  0.49781626E+00  0.48800010E+00
  0.76384096E+00  0.68321654E+00  0.99971670E+00
  0.24696319E+00  0.83597382E+00  0.49766318E+00
  0.55093110E-03  0.23932667E-03 -0.21258177E-02
  0.43497325E-03  0.41485287E-03  0.69253776E-03
  0.97125204E-03 -0.50852036E-03  0.42626821E-03
  0.82918013E-03  0.58843511E-03  0.92373365E-03
 -0.15726147E-02  0.94535810E-03 -0.12480885E-02
 -0.58975974E-03  0.20886466E-03  0.69907170E-03
 -0.27095789E-03 -0.22629415E-03  0.27065698E-03
 -0.63599839E-03  0.12554725E-02  0.66775552E-03
 -0.11364919E-02 -0.66853405E-03  0.13651134E-02
 -0.63369648E-03 -0.99108122E-03  0.12367464E-03
 -0.81319573E-03  0.75888898E-03  0.68560180E-03
  0.90834409E-03  0.64743999E-03  0.48403659E-04
  0.15090091E-02 -0.13379786E-03  0.17622408E-03
 -0.39101843E-03  0.51251684E-03  0.63419037E-04
 -0.76193367E-04 -0.74565041E-05 -0.24209400E-04
 -0.56481532E-03  0.88357715E-03  0.60400335E-03
 -0.15572501E-02 -0.30628741E-03  0.41557918E-03
 -0.14692637E-03  0.13662262E-03 -0.80350199E-03
 -0.49203852E-04 -0.70261040E-03 -0.26611679E-03
 -0.12897591E-02 -0.24858288E-03 -0.42671069E-04
  0.15799274E-02 -0.51915208E-03 -0.19543803E-03
  0.65410784E-03 -0.68751878E-03  0.53615504E-03
 -0.72805179E-03 -0.14247832E-04  0.89951735E-04
  0.75231430E-03 -0.32803182E-03 -0.18726235E-04
 -0.14996888E-03  0.37036390E-03 -0.49217206E-03
 -0.18361915E-03  0.16267718E-03 -0.16546624E-03
  0.74470141E-03 -0.46765699E-03 -0.85529973E-03
 -0.11654020E-02  0.63699116E-03  0.50657402E-03
 -0.12775832E-03  0.28743258E-03 -0.45975913E-04
  0.11198335E-02 -0.24589926E-03 -0.83171535E-04
  0.14461709E-02 -0.10878040E-02 -0.62340443E-03
 -0.27804655E-03  0.10564857E-03  0.15630223E-02
 -0.57048486E-03 -0.11963761E-02  0.58139328E-03
  0.15665406E-02 -0.42711443E-03  0.15740589E-03
 -0.44039959E-03 -0.92563962E-04 -0.17814365E-03
 -0.77934768E-03  0.11205518E-03  0.40695720E-04
 -0.69342974E-03  0.99136470E-03  0.43558937E-04
  0.60142470E-03 -0.90647003E-03 -0.77726464E-03
 -0.13455734E-02  0.12313955E-02 -0.10143973E-02
 -0.68029938E-03  0.69699156E-03  0.50792325E-03
 -0.81231345E-04  0.11347954E-03 -0.11672206E-02
  0.72561696E-04 -0.12311783E-02  0.52212879E-03
  0.10985792E-02  0.17640905E-03  0.29597239E-03
  0.38661627E-03 -0.15569697E-02  0.62760625E-04
 -0.57215635E-03 -0.14134537E-02  0.47070770E-03
 -0.22335457E-02 -0.17449603E-02 -0.14381014E-03
  0.22570547E-02  0.41384635E-03  0.23351326E-03
  0.86036010E-03 -0.11813332E-02  0.39027519E-03
  0.14930018E-02  0.86069778E-03 -0.74947063E-03
  0.16121453E-02 -0.74379413E-04  0.57989317E-03
 -0.84002347E-03  0.62807825E-03  0.51629244E-03
  0.26314267E-03  0.20942281E-02 -0.29867953E-03
  0.15128272E-02  0.85527770E-03 -0.43647400E-03
 -0.52056692E-04  0.10577012E-02 -0.87307010E-03
  0.20114158E-02  0.22783958E-02 -0.40814235E-03
 -0.48902304E-03 -0.72215200E-04 -0.75974075E-03
 -0.80551865E-03 -0.61787576E-03 -0.82741215E-03
 -0.12826230E-02 -0.56281278E-04 -0.72051512E-03
  0.26805645E-03  0.15953743E-03 -0.30173888E-03
 -0.98835342E-03  0.94561120E-03 -0.33519620E-03
  0.64667030E-03 -0.14525022E-02 -0.16010080E-03
  0.23959294E-02  0.15668880E-02 -0.12914527E-03
 -0.72515715E-03 -0.13754567E-02  0.31458710E-03
  0.42015761E-03  0.42430852E-03 -0.82052682E-03
 -0.15832194E-02  0.54861391E-03  0.84041914E-03
  0.28318615E-03 -0.12117948E-02  0.81034285E-03
  0.17101800E-02  0.11133211E-02 -0.11439468E-03
  0.48987457E-03 -0.23409158E-03 -0.86949789E-03
 -0.37363628E-02  0.10969937E-02 -0.12841130E-04
 -0.39756730E-03  0.22900053E-04 -0.15501590E-03
 -0.19037717E-02  0.56616321E-03 -0.27290267E-03
  0.19482522E-02  0.12570419E-02 -0.93097086E-03
  0.22251690E-02 -0.72705248E-03  0.96470356E-03
  0.14428774E-02 -0.11235618E-02  0.58835931E-03
  0.66108166E-03  0.10908424E-02 -0.45973486E-04
 -0.28973862E-02 -0.35642506E-03  0.18579653E-02
 -0.20832253E-03 -0.14582599E-02 -0.85851540E-04
 -0.17746626E-02 -0.21855241E-03 -0.97045688E-03
  0.62566891E-04  0.19803958E-02 -0.84483578E-03
 -0.56992159E-03  0.70991290E-03 -0.63989927E-04
 -0.97072740E-03 -0.22303483E-02  0.10960315E-02
 -0.13814863E-03  0.16622230E-02  0.28772864E-02
  0.16882601E-02  0.41917432E-03 -0.12011662E-02
 -0.92561382E-03  0.86231888E-03 -0.10617517E-03
  0.12891286E-02  0.15366333E-02 -0.99896642E-03
 -0.33475024E-03 -0.11624655E-02 -0.10156743E-02
 -0.76610451E-03  0.50466652E-03  0.22734381E-02
 -0.80872280E-03 -0.81627583E-03  0.67102935E-04
 -0.79249513E-03  0.54120852E-03 -0.23985556E-04
  0.20519760E-03 -0.10260126E-03 -0.88609744E-03
  0.86687173E-03  0.61761131E-03  0.15436786E-02
  0.14849694E-02 -0.10577507E-02  0.12591341E-03
 -0.17029058E-02 -0.10371668E-02 -0.89932393E-03
 -0.14517038E-02  0.81317730E-04 -0.21822106E-02
  0.32254807E-03 -0.89652490E-04 -0.11849948E-02
  0.13618502E-02  0.72678753E-03 -0.10293844E-02
  0.00000000E+00  0.00000000E+00  0.00000000E+00
  0.00000000E+00  0.00000000E+00  0.00000000E+00
  0.00000000E+00  0.00000000E+00  0.00000000E+00
  0.00000000E+00  0.00000000E+00  0.00000000E+00
  0.00000000E+00  0.00000000E+00  0.00000000E+00
  0.00000000E+00  0.00000000E+00  0.00000000E+00
  0.00000000E+00  0.00000000E+00  0.00000000E+00
  0.00000000E+00  0.00000000E+00  0.00000000E+00
  0.00000000E+00  0.00000000E+00  0.00000000E+00
  0.00000000E+00  0.00000000E+00  0.00000000E+00
  0.00000000E+00  0.00000000E+00  0.00000000E+00
  0.00000000E+00  0.00000000E+00  0.00000000E+00
  0.00000000E+00  0.00000000E+00  0.00000000E+00
  0.00000000E+00  0.00000000E+00  0.00000000E+00
  0.00000000E+00  0.00000000E+00  0.00000000E+00
  0.00000000E+00  0.00000000E+00  0.00000000E+00
  0.00000000E+00  0.00000000E+00  0.00000000E+00
  0.00000000E+00  0.00000000E+00  0.00000000E+00
  0.00000000E+00  0.00000000E+00  0.00000000E+00
  0.00000000E+00  0.00000000E+00  0.00000000E+00
  0.00000000E+00  0.00000000E+00  0.00000000E+00
  0.00000000E+00  0.00000000E+00  0.00000000E+00
  0.00000000E+00  0.00000000E+00  0.00000000E+00
  0.00000000E+00  0.00000000E+00  0.00000000E+00
  0.00000000E+00  0.00000000E+00  0.00000000E+00
  0.00000000E+00  0.00000000E+00  0.00000000E+00
  0.00000000E+00  0.00000000E+00  0.00000000E+00
  0.00000000E+00  0.00000000E+00  0.00000000E+00
  0.00000000E+00  0.00000000E+00  0.00000000E+00
  0.00000000E+00  0.00000000E+00  0.00000000E+00
  0.00000000E+00  0.00000000E+00  0.00000000E+00
  0.00000000E+00  0.00000000E+00  0.00000000E+00
  0.00000000E+00  0.00000000E+00  0.00000000E+00
  0.00000000E+00  0.00000000E+00  0.00000000E+00
  0.00000000E+00  0.00000000E+00  0.00000000E+00
  0.00000000E+00  0.00000000E+00  0.00000000E+00
  0.00000000E+00  0.00000000E+00  0.00000000E+00
  0.00000000E+00  0.00000000E+00  0.00000000E+00
  0.00000000E+00  0.00000000E+00  0.00000000E+00
  0.00000000E+00  0.00000000E+00  0.00000000E+00
  0.00000000E+00  0.00000000E+00  0.00000000E+00
  0.00000000E+00  0.00000000E+00  0.00000000E+00
  0.00000000E+00  0.00000000E+00  0.00000000E+00
  0.00000000E+00  0.00000000E+00  0.00000000E+00
  0.00000000E+00  0.00000000E+00  0.00000000E+00
  0.00000000E+00  0.00000000E+00  0.00000000E+00
  0.00000000E+00  0.00000000E+00  0.00000000E+00
  0.00000000E+00  0.00000000E+00  0.00000000E+00
  0.00000000E+00  0.00000000E+00  0.00000000E+00
  0.00000000E+00  0.00000000E+00  0.00000000E+00
  0.00000000E+00  0.00000000E+00  0.00000000E+00
  0.00000000E+00  0.00000000E+00  0.00000000E+00
  0.00000000E+00  0.00000000E+00  0.00000000E+00
  0.00000000E+00  0.00000000E+00  0.00000000E+00
  0.00000000E+00  0.00000000E+00  0.00000000E+00
  0.00000000E+00  0.00000000E+00  0.00000000E+00
  0.00000000E+00  0.00000000E+00  0.00000000E+00
  0.00000000E+00  0.00000000E+00  0.00000000E+00
  0.00000000E+00  0.00000000E+00  0.00000000E+00
  0.00000000E+00  0.00000000E+00  0.00000000E+00
  0.00000000E+00  0.00000000E+00  0.00000000E+00
  0.00000000E+00  0.00000000E+00  0.00000000E+00
  0.00000000E+00  0.00000000E+00  0.00000000E+00
  0.00000000E+00  0.00000000E+00  0.00000000E+00
  0.00000000E+00  0.00000000E+00  0.00000000E+00
  0.00000000E+00  0.00000000E+00  0.00000000E+00
  0.00000000E+00  0.00000000E+00  0.00000000E+00
  0.00000000E+00  0.00000000E+00  0.00000000E+00
  0.00000000E+00  0.00000000E+00  0.00000000E+00
  0.00000000E+00  0.00000000E+00  0.00000000E+00
  0.00000000E+00  0.00000000E+00  0.00000000E+00
  0.00000000E+00  0.00000000E+00  0.00000000E+00
  0.00000000E+00  0.00000000E+00  0.00000000E+00
  0.00000000E+00  0.00000000E+00  0.00000000E+00
  0.00000000E+00  0.00000000E+00  0.00000000E+00
  0.00000000E+00  0.00000000E+00  0.00000000E+00
  0.00000000E+00  0.00000000E+00  0.00000000E+00
  0.00000000E+00  0.00000000E+00  0.00000000E+00
  0.00000000E+00  0.00000000E+00  0.00000000E+00
  0.00000000E+00  0.00000000E+00  0.00000000E+00
  0.00000000E+00  0.00000000E+00  0.00000000E+00
  0.00000000E+00  0.00000000E+00  0.00000000E+00
  0.00000000E+00  0.00000000E+00  0.00000000E+00
  0.00000000E+00  0.00000000E+00  0.00000000E+00
  0.00000000E+00  0.00000000E+00  0.00000000E+00
  0.00000000E+00  0.00000000E+00  0.00000000E+00
  0.00000000E+00  0.00000000E+00  0.00000000E+00
  0.00000000E+00  0.00000000E+00  0.00000000E+00
  0.00000000E+00  0.00000000E+00  0.00000000E+00
  0.00000000E+00  0.00000000E+00  0.00000000E+00
  0.00000000E+00  0.00000000E+00  0.00000000E+00
  0.00000000E+00  0.00000000E+00  0.00000000E+00
  0.00000000E+00  0.00000000E+00  0.00000000E+00
  0.00000000E+00  0.00000000E+00  0.00000000E+00
  0.00000000E+00  0.00000000E+00  0.00000000E+00
  0.00000000E+00  0.00000000E+00  0.00000000E+00
