Mg12 V24 O60
1.0
  17.6196599999999997    0.0000000000000000    0.0000000000000000
   0.0000000000000000   21.5331299999999999    0.0000000000000000
   0.0000000000000000    0.0000000000000000   23.2034400000000005
Mg V O
12 24 60
direct
   3.4627917798000003    1.7232102613800000   22.7877039655200022 Mg
  12.2243086720799994    2.1048203912400001    0.7679642536800001 Mg
   3.8049127180199998    5.8210079666399999   23.1922095350399999 Mg
   7.7788684540799995    5.5026191064600001   22.7335935434400014 Mg
  16.5294963964799990    5.3856296111700006    0.1496853914400000 Mg
   3.0910345734600000    9.0084495348899996   23.0150976775200000 Mg
  12.4683057237600003   12.2643018571500004   22.8646929794400009 Mg
  12.2665077577799995    8.8533248663700004    0.0962246656800000 Mg
   3.5892656992799998   16.6419010536299972   23.1722081697600011 Mg
  16.7747973029999997   16.4091063852000012   23.0069068632000011 Mg
   3.5343099797399997   19.8310006728899992    0.0384945069600000 Mg
   8.2477276066799998   19.3881072550499987    0.1417962218400000 Mg
   1.7997954100200000    3.7599213624299996    1.8152747215200000 V
   2.2176632665799998    1.9573184507400001    4.0267945879200004 V
   6.6283222757399995    3.3232940854200002    1.7365918564800003 V
   6.6066853332599997   21.2819029722900019    1.6415505662400001 V
  10.0312072115399999    3.5160801983099996    1.7970368176800000 V
  14.7254017894199993    3.5996933421000001    1.7806551890400002 V
   1.7494384217400001    7.1211998891699997    1.7567556458400000 V
   6.2843865125400002    7.1696709647999999    1.7945076427200002 V
  10.4071931362800001    7.2585597254399996    1.7843909428800000 V
  14.9451013299600000    7.4636412555599998    1.7145717919200001 V
   1.7983329782399999   10.9354924048500006    1.6980973495200000 V
   5.7629150551799997   10.7000922276899999    1.7978489380800000 V
   7.2456623031599996    9.0072006133499993    3.8417471539200001 V
  10.4061007173599993   10.7601911935199990    1.6589995531200001 V
  11.6313013951200013   12.2961924226799990    4.0553116156800000 V
  14.9908067279999990   11.1433086424799992    1.7624868955199999 V
   1.6129917747000000   14.4377913999600000    1.6600437079199999 V
   6.1390243175399997   14.2882007458500002    1.8460888898400003 V
   6.9063076515599997   16.1779051683900015    3.9965605056000002 V
  10.3923926218799991   14.0768100086399990    1.7353620741600000 V
  14.9163989038199993   14.8228898968799996    1.6881198703200000 V
   1.4861302226999999    0.1415587966200000    1.6797434284799999 V
   1.7501784474600000   17.9170068797100015    1.6610646592800000 V
   5.9077662800399997   17.9268044538600009    2.0208107930399999 V
   2.2095934623000000    1.9200230695799998    1.9811561140800000 O
   1.4420634530400001    0.1159559050500000    3.6918065246400000 O
   2.6430547179600001    3.5152619393700002   -0.0041534157600000 O
   5.0684361562800007    3.0528379726200003    1.5102887061599999 O
   6.7480302457799999    1.5130253794499999    2.4093755992800001 O
   8.7792422702399993   20.7522956399399980    1.3280024815200000 O
   5.0974557362999997   21.0449093435099996    1.2324043087200001 O
   7.3210215889799999   21.3707917329300017    4.0926923575200007 O
   8.4858220722599995    2.8206246987000001    1.7009513726399998 O
  10.7159952974399992    1.7990714783699999    2.0243145124800002 O
  10.9041027875999994    3.5732937247200001    0.2234027203200000 O
   0.2419707907800000    3.9919623713100001    1.4831638848000002 O
  12.9973007759399994    3.4955160591599999    1.8268996449599999 O
  15.5960949079799995    1.9230377077799998    2.1543697936799999 O
   2.8266163358400003    5.3775762205500000    1.9653313680000000 O
   4.5943087253400003    7.1334737732699995    1.4117436964800001 O
   2.0275295155199999    7.2558680841900003    3.5488269273599999 O
   2.2347719564399999    7.0213507653599994    0.0393066273600000 O
   7.1097442459200000    5.2737865339500001    2.1642080522400002 O
   6.5553768833400001    7.1090121375900006    3.6551914963200001 O
   8.9142441051599999    7.7993642853900003    0.9501576645600001 O
  10.9674983242799993    5.2053542468099998    2.0068423221599998 O
  10.8989930861999991    7.0887279291300000    3.5806620470400001 O
  13.3012046716199990    7.3763244134099999    1.5282945756000001 O
   0.3081502337400000    6.3797496238799996    1.2999727260000000 O
  15.6067019432999992    5.5864906478099998    1.9147710722400000 O
  15.3273950929799998    7.3435294564199998    3.6191101471200002 O
   2.0930041720800001    8.9942807353499994    1.8132328188000002 O
   2.1809262754800001   10.8952039186200000    3.6649137376800001 O
   2.4190383607200001   12.6596931902099996    1.6742442131999999 O
   0.1061055925200000   10.8840066910199997    1.3184890711199999 O
   6.8607960697799992    9.1323726980399993    1.9537992583200001 O
   4.2319427977800004   10.2672978478200001    1.2267658727999999 O
   6.8877541495800001   12.1894957635299992    2.0465202045600002 O
   6.1859278524599999   10.6014058928999990    3.9034683043200000 O
   8.8339513145399984   10.7391102592499994    1.0537378207200001 O
  11.1994963875000000    9.0778077466199996    1.8661598654400000 O
  11.0449014906600009   12.4096074183899994    2.1250870524000001 O
  11.2357047887999997   10.7388949279499997   23.1629035903199991 O
  13.3974080152199999   11.2615039930500007    1.4411192515200000 O
  15.2875041827400011    9.2834276049899991    1.9630806343200000 O
  15.5386019573999992   12.9459976866899993    2.1171746793600001 O
  15.5791976540399997   11.2862024931600011   23.1187938508799995 O
  -0.0117699328800000   14.6026059769799996    1.4373370908000001 O
   2.3547970803599996   16.1083962247500025    1.9444714754400001 O
   2.3880453787799998   14.7484068002100006   23.0002938828000012 O
   2.1214775426400001   14.2807072166100006    3.4249205577600006 O
   4.5476871049800005   13.9568920076700014    1.5597584402400002 O
   6.2571465181799999   16.2420954289199990    2.0948065632000001 O
   6.4798766402399997   14.3394926615100005    3.6159544792800000 O
   8.7147366949800009   13.9287912730200016    1.5729611976000002 O
  11.0019976185599990   16.0349036520600023    1.9427312174400000 O
  11.2906957476599992   14.0178092324399994    0.1081048269600000 O
  13.2575079148199997   14.9372954165700005    1.2224500329600001 O
  15.5500018774199997   16.6192912671299986    2.0619504921599998 O
  15.2044979644799998   14.7006032516099996    3.7871262561600001 O
   0.0830238379200000   17.4995010221399987    1.0217170735200001 O
   2.1866350453200001   19.9642046150700025    1.9075548024000002 O
  17.5108057405199986   -0.0149655253500000    1.2876052924800001 O
   2.2902915050999999   18.1878075225899991    0.0413021232000000 O
