Mg12 V24 O60
1.0
  17.6196599999999997    0.0000000000000000    0.0000000000000000
   0.0000000000000000   21.5331299999999999    0.0000000000000000
   0.0000000000000000    0.0000000000000000   23.2034400000000005
Mg V O
12 24 60
direct
   8.0822789992799997    1.7429776747200001   -0.0164512389600000 Mg
  12.5903923478999999    1.4870564246700000    0.3594444890400000 Mg
   3.4657166433600000    5.1227531601300003   22.5929110867200009 Mg
   8.0086816794600004    5.0218273798200004    0.2231706859200000 Mg
  12.6624919966200000    5.6024897634000004   23.1041988871200026 Mg
   3.5404063821000000    8.9476399757699987   23.1530885352000020 Mg
   8.0726939042399994    9.0063608212799995    0.0938811182400000 Mg
  12.1894041256199994   12.9276083936699990   23.0676070622400005 Mg
  12.4984001030399998    8.9038415893499998    0.1547669448000000 Mg
   3.6025685425799998   15.5731902785999985    0.2387866010400000 Mg
  12.4855025119200000   15.8872079133900002    0.2526854616000000 Mg
   3.5660253677400000   19.9524905923499993   22.2866024752799987 Mg
   2.0675085240600000    3.4602232590900002    1.8629345872800001 V
   6.1498251691199997    3.6479060201700002    1.8291503786400001 V
  10.6432965802799995    3.4942025382300002    1.6371187092000001 V
  15.0502026018600006    3.4341897049199996    1.9280666433600000 V
  14.8644032871600000   21.4264979402400009    1.7803999512000002 V
   1.4635065792599999    7.1176038564599997    1.8799659122399999 V
   5.8643866771200006    6.9613163989200002    1.6108988220000000 V
  10.9297922518800004    7.1339690352599998    1.8983198332800000 V
  15.0721919375400013    7.2371342610899996    1.8325612843200001 V
   1.5780167495999999   10.8727017977699987    1.7130635683200002 V
   6.2993279842199996   10.7660051386199989    1.7026452237600000 V
  10.4207074154999990   10.7477019781200003    2.0545021879199998 V
  15.1566077286000009   10.7262980469000002    1.6740121788000000 V
   1.2127964371200000   14.3978043775499991    1.7405596447200000 V
   6.2689164510600000   14.2017021626400002    1.9030997419200000 V
  10.2114915726600000   14.4349059605400001    1.7664546837600001 V
  11.2424002595999983   16.4080081955700017    3.8602867024799998 V
  15.0922959696000003   14.1403973415299991    1.6959394296000001 V
   2.0886168767400002   21.4465022180100000    2.0737378396799997 V
   1.9957612685399999   17.9748018006300008    1.5093837719999998 V
   5.9980846571999997   21.4797924369899995    1.7525790266400001 V
   6.0687571134599994   17.6819942988900003    1.7052904159200002 V
  10.2463961191199999   21.5308044219599992    1.7852262667200003 V
  10.3757068038600000   18.1015027375499997    1.6294151671199999 V
   0.5261582869200000    3.1376569716900002    1.4362001222400000 O
   2.6338748751000001    1.7884341121500000    2.3767515626400000 O
   4.6141837018200000    4.2248001060000000    1.1988985413600000 O
   2.5149774094200001    0.1346897281500000   23.1455010103200003 O
   6.3571380886800002    1.7562636159299998    2.0713014784800001 O
   6.5486814125400006    3.7044304864199997    3.8496595269600000 O
   8.6962889109599999    0.0997845244200000    1.3659169024800002 O
   6.8511757354200000    3.2616232010999999    0.0969903792000000 O
   9.0083330895600007    3.2581563671699998    1.4496813208799999 O
  10.6574980262399990    3.4236815374799998    3.8277554796000000 O
  11.0589972186599983    1.6777107576899999    1.9254678580800000 O
  13.2976983592800000    3.1158654441299998    1.6774694913599999 O
  13.3232997252600001   21.4140948573600021    1.1755558807199999 O
  15.8429992035599998    1.7954539125300000    2.2623354000000000 O
  15.9202966519800011    3.7832632753500000    0.4577110574400000 O
  15.7136004205200006    0.0031223038500000    0.2059769368800000 O
  15.3963936815399993    3.3661234809899998    3.9121695943200003 O
   2.5057623272400003    5.2941138086699997    2.1442298904000001 O
   4.4456868932399995    7.5215653752599998    1.1271999117600000 O
   2.3337592063199999    8.8883377357499995    2.0740394844000001 O
   7.0615016168400002    5.3555047622999998    1.9771419189599999 O
   6.0968076121800001    7.0948864043099995    3.6599249980800002 O
   7.2367643748599999    7.0913334378600004   -0.0493305134400000 O
   9.3226502043000004    7.4413329328800000    1.7972920555200000 O
  10.9926063397800000    5.2460518625099999    2.0721368023199997 O
  13.3810922100600003    7.2140507457299998    1.5362301520800001 O
  11.3985985454999987    7.2707044107600005    0.1028144426400000 O
  17.4476921183999991    6.8638143862799996    1.5615219016799999 O
  15.2790996049199990    5.2011983527200005    2.3817170988000003 O
  15.5171059721999995    7.1850240864899995    0.1632594038400000 O
   2.1781599888600001   10.7275039021800005    3.7988904002400004 O
   2.2176104076000001   12.5122989153600006    1.8546509592000000 O
  -0.1138406232600000   10.6708071708900007    1.1400082106400000 O
   2.4479169834599999   10.3759970880600001   23.1701894704800004 O
   6.5763618984000001    8.8823515256099999    2.0068191187199997 O
   4.6922211759599994   11.0823914177099994    1.5884378920800002 O
   7.2419797942200006   12.5616959155800014    1.8706149259200000 O
   6.8299440451199995   10.6481973843900004    3.6863305128000001 O
   8.7503460278399992   10.2093091287300002    1.9695311906399999 O
  11.5473084758999995    9.1171703082600004    2.0461257460800000 O
  10.6844032470600006   12.7099084493700012    1.9821770654400002 O
  13.5500999887799995   10.8329085735300001    1.6577929742399999 O
  10.8255014843400001   10.7261903812499995    3.8474087932799996 O
  11.3309038117799989   11.0497041263699991    0.2875834353600000 O
  15.6505044180599988    8.9531093907900008    2.1768075201600001 O
  15.5879017660799999   12.3790949731800008    2.2841466336000003 O
  17.2673020393200005   14.0922061965900003    1.4599140379200000 O
   1.9886429258999998   16.0377029589600006    2.0137801507200002 O
   2.0423124102600001   14.3077097616300009    0.0204886375200000 O
   1.6587676513800000   14.0877057724199997    3.6026589081600005 O
   4.6035766664999995   14.1104016914399999    1.3946659646399999 O
   6.4791542341800001   15.9378969014099994    2.2856084503199998 O
   8.6445575891999997   14.8720069664099999    1.6202498083200001 O
  10.8588026417399988   16.3079006741999990    1.8544885351200000 O
  11.2280930956800002   14.6214043994700003   23.2184062188000020 O
  10.6595066674800005   14.5149015384900011    3.6999741355199998 O
  13.4803085155199991   14.2541999335800007    1.1656712152800000 O
  15.7600987032599988   16.0181078106600019    1.7435760919200001 O
  15.2764918952399995   14.2784893042199990    3.6984427084800000 O
  13.0100045507999997   17.7796039771799990    1.4700075343200001 O
