Mg12 V24 O60
1.0
  17.6196599999999997    0.0000000000000000    0.0000000000000000
   0.0000000000000000   21.5331299999999999    0.0000000000000000
   0.0000000000000000    0.0000000000000000   23.2034400000000005
Mg V O
12 24 60
direct
   8.0326972760400004    1.8802513784699999    0.2811560824800000 Mg
  16.6594061496600006    2.2280760273599998   23.0684887929600002 Mg
  12.3808064921999996    5.7363612326100002    0.0832539427200000 Mg
   3.4345298451599997   12.2276094036299998    0.1189176300000000 Mg
   8.1159677891999991    9.0907706908799994   22.8910056804000028 Mg
  16.5534062750999986   12.3529968196199995    0.1865324541600000 Mg
   8.4026925163800001   16.6892954727599978   22.4674036797600003 Mg
  12.3151027800600001   15.7464027763200001    0.5506408346400000 Mg
  16.7426942824799987   16.3813932468899992   22.6912008585600020 Mg
   7.9493915235600001   19.6816899494700017   22.4871962140800008 Mg
   0.8253753530400000    3.4565195607299999    6.0835011026399997 Mg
   5.1649742734199995    3.6334142236800000    5.4454297060800005 Mg
   1.7457382931400001    3.0981221450100001    1.7754808219200000 V
   1.9941931187999999   21.3472990880999980    1.3361236855200000 V
   6.5664244101599998   21.4418079956700005    1.7338306471200000 V
   5.7511275026400002    3.5896804366499997    1.7512332271200000 V
  10.7861039245800008    3.5293230732599996    1.7311854549599999 V
  10.3166985625199992    0.0442936484100000    1.9201310668800002 V
  11.3590952677799990    1.7098597207800001    4.0240565820000000 V
  14.7076059328199999    3.7302056430299997    2.0597461653600000 V
   1.7076269685600001    6.8866395040799997    1.7280065836800000 V
   5.9521854428999994    7.1700585611400003    1.6474906468799999 V
   6.9313804277399997    5.5158404482799996    3.7218549794399998 V
  10.2866922815399988    7.0023154784399999    1.9983962700000000 V
  14.8496027727600008    7.0540165235700005    1.9663987262400000 V
   1.6475263083000000   10.2315097857600001    1.6768894053600001 V
   6.2661677840999994   10.8340067631599997    1.9803671971199999 V
  10.1381937870599987   10.6478959205700008    1.7988002791200000 V
  14.7788950771799996   10.4191925468399997    1.8754180379999998 V
  16.0012061306999982    8.7641131087800002    4.1020433438400001 V
   1.7003676686400000   13.9156991299800001    1.7937883360800000 V
   6.5557116568799998   14.3007976268999997    1.5560226864000000 V
  10.0931050771200006   14.4524985277499987    1.7378448422400001 V
  15.0377983612200001   14.2622963904599995    1.9656562161600000 V
   1.7038563613200000   17.9091042209999998    2.0301849828000003 V
   6.4270528995599996   17.8630017896700011    1.6814372796000001 V
   0.0202273696800000    2.7951294727800002    1.3938770476800000 O
   2.0120770737000000    3.3017394222899998    3.9036075249600000 O
   2.4163249330800003    1.4055319944900000    2.2249314547200001 O
   4.9025470573800005   20.9941988223599978    1.5559066692000001 O
   3.9855142330200000    3.3754042600200003    1.4876189452800002 O
   6.6450785723999992    1.6477151076000001    2.1108401402400001 O
   6.3454738737600005    3.6714847975199998    3.7009950868800003 O
   7.0735006052999996   21.1204044972900000    0.0084924590400000 O
   9.1852168563000003    3.5210543513400001    1.5229809878400000 O
  10.9310080084200010   21.2764981566600007    3.8170818972000005 O
  10.9245944521799991    3.4248012602399998    3.5983198648800001 O
  11.1670938327599991    1.6765695018000000    1.9359790163999999 O
  13.1592959299799990    3.2768255908800001    1.5936122592000002 O
  15.4135023713999981    1.8920945999700001    2.0648973290399999 O
  15.4417995453599985    4.0716349523100002    0.1152050796000000 O
  15.9706007812799999    0.4639097527200000   -0.0098150551200000 O
   2.0583639205199997    6.8548350710699992    3.7857108463199998 O
   2.4376975806600001    5.1310864814399997    1.9642640097599999 O
   4.2739480672200001    7.0730302773600000    1.2802033951200000 O
   6.5196442128599994    5.3632136228400000    1.8143929908000000 O
   6.0365659946400001    7.1407304380800003    3.6643568551200003 O
   6.6931273852200004    7.5994291733399999   23.1190026818400014 O
   8.7436329373799992    6.9963292682999993    1.4032048305600000 O
  11.0943070172999985    6.8757437402999999    3.8473623864000004 O
  11.3587076352600000    5.2533731267099997    2.0054965226400001 O
   0.1875612807000000    6.6292970674499996    1.0214386322400000 O
  13.2597984706199998    7.4307601660499998    1.4656220841600001 O
  15.6437032292999980    5.3186400437399994    2.0995400649599998 O
  15.3399050515799988    6.9679701360900008    3.8198431065600000 O
   2.3770507109399999    8.6946041651400012    2.0475411559200003 O
   2.2675269043799999   10.4020091090999998    3.8272450039200003 O
   2.2729361400000001   12.1512959909100005    1.7802607305600000 O
   6.5630766747599996    8.9593539984900001    1.9851935126400000 O
   4.4590954544999999   10.7683953160500003    1.3956405091199999 O
   6.9642058543199994   12.6478930349700001    2.4395632747199998 O
   6.3342149110200001   10.7415004366799991    3.8251798977600000 O
   8.5033360143000003   10.2868068635999990    1.5493865025600000 O
  10.9251935206199988    8.8688502530999997    2.1753689068800002 O
  10.5131049125399993   12.4820018014500000    1.9015915183200001 O
  13.1489003305800001   10.4753940161400010    1.2875820890400000 O
   0.0499341164400000    9.9993180449699999    1.4701467549600000 O
  15.5547944249399990    8.7214344451199999    2.2251634891199998 O
  15.6388930621199993   12.4107056080200007    2.2207780389600003 O
  15.3131936470200003   10.4498987902200007    3.8201215478400004 O
   0.1848302334000000   13.5548038711799990    1.3774722156000001 O
   2.4853235216400003   16.0875090886500018    2.2562096918400001 O
   2.4384904653599997   14.3192945855700007    0.1184767646400000 O
   4.7167301230200005   14.2305996230999998    1.5533310873600001 O
   6.9142188788999999   16.0554031918199982    2.3073732770399999 O
   8.4806418922199995   14.1914093265000005    1.3467508610400001 O
   6.6960874880999999   14.8666021507799986   22.8478008751200008 O
  11.2031084177999993   16.1465098648499996    2.0769399144000000 O
  11.2298022027000002   14.0569995290400005    0.0855046764000000 O
  13.4081031488400004   14.1028004965500013    1.6596492494400001 O
  15.7837971459599995   15.8850976666500010    2.0179103630399999 O
  15.3701932471199996   14.0751088913700002    3.9753989683200004 O
   2.6579080913399999    0.2111754059100000   22.8933956347200009 O
   0.0731568283200000   18.0123986456100020    1.7556186772800000 O
   2.2794730338600000   18.0158008801499996    4.0229196134400000 O
   2.6718100030800001   19.5971078148300002    2.2761414468000001 O
