Mg12 V24 O60
1.0
  17.6196599999999997    0.0000000000000000    0.0000000000000000
   0.0000000000000000   21.5331299999999999    0.0000000000000000
   0.0000000000000000    0.0000000000000000   23.2034400000000005
Mg V O
12 24 60
direct
   3.6017756578799998    2.0634983147699999   23.2317017899199989 Mg
  12.3611958106199999    1.9186449492600000   -0.0216488095200000 Mg
   8.0104612651200000    5.4625674846600001    0.1489892882400000 Mg
  16.7404918249800012    5.3531145848699992   23.0802993439200002 Mg
   3.5595413328599999   12.5206107035400009    0.2094342494400000 Mg
  12.2508086407200008   12.5866097469899998    0.1344871382400000 Mg
   7.8133325090400003   15.9597099620999998    0.3891216888000000 Mg
  16.8638999236200000   16.1819964630899982   22.6430073136800019 Mg
   0.8963649631800000    0.0389749653000000    6.5262227378399995 Mg
   1.0145576424600000    3.7303779080699999    5.0551478452800005 Mg
   4.7616426363599995    4.1358467459699995    6.0009896700000001 Mg
   4.9981160932200002   21.2277040840799991    5.3709930705600009 Mg
   1.6656040794600000    3.5268898295700000    1.7839268740800003 V
   6.0425214397200007    0.1055769363900000    1.9357005751200000 V
   6.0500274148799997    3.8799039627900003    1.6115021114400001 V
  10.5963930453600010    3.7132590697199999    1.9726636550399999 V
  14.8793976178200005    0.1676784833100000    2.0196506210399998 V
  14.9448017957399983    3.6322514346600001    1.7085156940800001 V
   1.7038916006400000    7.3030902382800003    1.6969139740800001 V
   6.2846684270999997    7.3306957109400006    1.7506995480000000 V
  10.7797079880000002    7.3252908953100002    1.8259018970400001 V
  14.9683945204799986    7.1524875270599999    2.0094643108799999 V
   1.6791535979999999   10.6767933810300004    1.6947560541600002 V
   6.4030725422999994   10.7705916953100012    1.8477363340799999 V
  10.4644922706000010   11.0092003088399988    1.8482700132000001 V
  14.6170937394000013   10.8744029150400010    1.8462281104800000 V
   1.8610765874999999   14.1265946051999993    1.6698123561600000 V
   5.8363361783999999   14.4066975602399996    1.7829987364800000 V
  10.3779973596600001   14.5911072855599997    1.8827735284800002 V
  15.0318076768199997   14.3267019822899986    1.7592616173600000 V
   1.7276957613000001   21.3539958915300012    1.6916699966400000 V
   1.6460814961800001   17.8920930483000014    1.7093278144799999 V
   5.8438421535599998   18.0302926766399985    1.7508155651999999 V
  10.4580963340200004    0.1970281395000000    1.8197065785600000 V
  10.4059069010999998   17.8929974397600020    1.7190036489600000 V
  15.1846053683399997   17.9215934364000020    1.6439869274400001 V
  17.5666953020399994    3.6649387259999999    1.2360240453600000 O
   1.7925361101000001   21.3479020157400008    3.6595305396000000 O
   2.3669017867800002    3.4554859704900003    3.6409445841600001 O
   2.2776229695599999    1.6337401062299999    2.0013895137600000 O
   2.5599604014000001   21.5135994510899984   22.9914997790400015 O
   4.6434147177599998    0.7006880502000000    1.3036156660800000 O
   4.4732264218200006    3.6361058649300002    1.1703351067199999 O
   6.7275033418799994    1.8257079601799999    1.7723483575200001 O
   6.9200862256799995    0.1979971303500000    3.7815342271200003 O
   6.6254326514999997    3.8089522994399996    3.5120494749600000 O
   9.0704071517400013    3.4516746064799997    1.4669910871200000 O
  10.6422922596599996    0.1277560602900000    3.6308742912000000 O
  10.8373066565399991    3.7568421248400004    3.9725913520800002 O
  11.3023952018999996    1.9112590856700000    2.1816802425600001 O
  11.1790928212199994    0.1561582587600000   23.1251980003200011 O
  13.2220923982199992    0.2372735594700000    1.8239064011999999 O
  13.2839021654999989    3.6529017063299998    1.3440128551200001 O
  15.5298978453599990    1.9092134383200001    2.2262076439200000 O
  15.6203924191199999   21.4208993264400007    3.7376565220800000 O
  15.1310063626199991    3.4762869740699998    3.7638300023999998 O
   0.0599244636600000    7.6539295253700006    1.4516768167199998 O
   2.1017787627600000    7.1744728527900001    3.6075084271200000 O
   2.3927145886800001    5.3114479783199995    1.7746222946399999 O
   4.6906882655399995    7.7832790372799998    1.6587907221600000 O
   6.7775960352599993    5.4595528464599994    1.8630274010400001 O
   6.8466122434799992    7.3921512639599998    3.5341623532800002 O
   6.9239977901999996    7.2406226281500006   23.0538938291999997 O
   9.1456959589200011    7.2810403131600001    1.0512318491999999 O
  10.9312018246800005    7.3184002937099990    3.9256739964000000 O
  11.2452017855399991    5.4776191425300000    2.0360554531200004 O
  13.2393949043400010    7.0646108235299998    2.0501167377600003 O
  15.3782982907200001    5.2946952031799999    2.2696444836000000 O
  15.2087971615199997    7.1437666094100001    3.8132301261600006 O
  15.5618951479199996    6.8806102276800001    0.0259646493600000 O
   2.4924418642799999    8.9986519607400002    1.9430096587200003 O
   2.5883104343399999   10.7924908885199997   23.1603048050399991 O
   2.2461542568000001   10.6194075895799998    3.6923866106399998 O
   2.3099726653199997   12.2596076348099992    2.0268204839999999 O
   7.0346844943199995    9.0739963826099999    1.5182706895200002 O
   4.7939218534799997   10.5177927491100007    1.6439405205600000 O
   6.5820530485799997   12.6124064367300015    1.9823626929600000 O
   6.7338816588000006   10.8312935887799995    3.6753784891200003 O
   8.8761504002400002   10.9995965328600001    1.5500361988800000 O
  11.1596054772599995    9.1024201142100001    1.9717587208800000 O
  11.0659041253799995   10.8446010631199989   23.0896967371200006 O
  10.8946057908600000   10.8228095355599994    3.8090767104000003 O
  11.0567066628599999   12.8216007946799984    2.2051157169600000 O
  -0.0012862351800000   10.7640025575300005    1.4022302860800000 O
  15.3580004423999998    9.1690005521699991    1.9638927547200002 O
  13.0224968897399993   11.2115901977100005    1.3170504578400000 O
  15.6092039350200000   12.3908089959000005    2.0041507231200000 O
  14.8561925256000009   10.8590928596099996    3.7792138831199997 O
   0.3189510853200000   14.0647945220999997    1.3461475716000000 O
   1.6496759068200000   14.2173998144099993    3.5994800368799997 O
   2.1128615288999999   16.0420957174799987    2.0989831824000000 O
   4.2149926848599994   14.6305990459800004    1.2512222985600001 O
   6.3981037981799993   16.2175045944599994    2.0643404464800001 O
   6.6976556378400005   14.2782093735300002    3.6670484541600006 O
   8.7188420757599996   14.4872960658299998    1.2038872809600001 O
  10.7711976922199995   14.7079029826800003    3.6521750491200002 O
