Mg12 V24 O60
1.0
  17.6196599999999997    0.0000000000000000    0.0000000000000000
   0.0000000000000000   21.5331299999999999    0.0000000000000000
   0.0000000000000000    0.0000000000000000   23.2034400000000005
Mg V O
12 24 60
direct
   3.6251217073799999    1.7232317945100000   23.1822088524000023 Mg
  12.1219913064599982    1.8315434384099998    0.3870101757600000 Mg
   7.9595756870399992    5.7930579638999999    0.3659182488000000 Mg
  16.8018082417799981    5.5592512383599999   22.8338092008000011 Mg
   3.3816532455000003   12.7093916542500001    0.0004640688000000 Mg
  12.1401043169399987   12.1815069723000011   22.9798980590399999 Mg
   7.8831063626400004   16.2150067513799989    0.2318951793600000 Mg
  16.6085029519199985   15.9715962498599993   22.5878063299199994 Mg
   0.9255607398000000    0.1463176183500000    5.9634465040800002 Mg
   0.8959949503200000    3.2222175732000000    5.8046189572799998 Mg
   5.4283177117800001    3.5952790504499998    6.2188467681599997 Mg
   5.3102659897800004    0.2552537230200000    5.5488938450400003 Mg
   1.5341261765399998    3.4866013433400003    1.9311062939999999 V
   6.1708454235000003    0.0926355252600000    1.7877090348000000 V
   5.9644134869399998    3.6606966993899999    1.5878113992000003 V
  10.5534010749600000    3.8201495270400003    1.9078796505600002 V
  14.6774058355800001    0.2277128497500000    1.7840196878399999 V
  15.2081980930799983    3.7162306416600002    1.7902614132000001 V
   1.7358184245600001    7.1395461159300000    1.7893564790400001 V
   5.9088586989599996    7.4022718350600005    2.0269829080799999 V
  10.6068943627199985    7.2902134265400003    1.6296704049600002 V
  15.0487930290600005    7.2679912363799994    1.8466689758400001 V
   1.6597191130200000   10.7677062558899994    1.8434436976800002 V
   6.0257827627200005   11.0615042816099987    1.8222357535200002 V
  10.3714076068200001   10.9447085844899998    1.6734784996800001 V
  14.8003029640799983   10.8196010991899989    1.6411793112000002 V
   1.5951959180999999   14.4602935208100014    1.6268163818400001 V
   5.8407939523799994   14.3981058413700005    1.8832608007200000 V
  10.3696984998000001   14.7506893119900013    1.6962178708800000 V
  14.7568000235400003   14.4065037620700007    1.7364990427200000 V
   1.4612160234600000   21.4106064903000011    1.9187620639200000 V
   1.4190521770800000   17.9729068851899996    1.7966191557600000 V
   6.2473852265400005   18.1768040931600012    1.7682181451999999 V
  10.2620952361800004    0.2890176708600000    2.1057817903200000 V
  10.4013962681399992   18.2541941623799993    1.8949785379200002 V
  15.0490925632799986   17.9181050693400010    1.7621388439199999 V
  17.4957056918999996    3.6674365690799999    1.5576933340799999 O
   2.0631036090600001   21.3803093763899987    3.7347560920800000 O
   1.8354928411800000    3.3839744457599998    3.8137406018400002 O
   1.8176969845800000    1.7493084149400000    2.1748352277600000 O
   2.2812349998600001   21.4198011368100012    0.0109984305600000 O
   4.6074529916999998   21.0971917831500022    1.5936586660800003 O
   4.4491227269399998    3.0983590094399998    1.3897932422399999 O
   6.7191163837200003    1.9231023071700000    1.7935098948000001 O
   6.7725215731800006    0.1285312529700000    3.6909712008000000 O
   6.4157939368199992    3.6596200428899999    3.5577602517600000 O
   9.0710238398399987    4.2580041924599996    1.6129639281600001 O
  11.0557023422400000    0.2320194757500000    4.1658296004000004 O
  11.3868990912600001    4.0799898067500004    3.8511445471200001 O
  11.3161913956800007    2.0727144944100000    2.3286276280800000 O
  10.7195016097800000    0.1779282531900000    0.2120562381600000 O
  13.0169995558200000    0.1193366064600000    1.6118501630400000 O
  13.4812952164799995    3.7500807220199999    1.6059796927199999 O
  15.7025000347199999    1.8851824652400000    2.2377629570400002 O
  14.7354978546000002    0.2765715217200000    3.9092691643199999 O
  15.2894071060200005    3.6473676919200000    3.9713383663199999 O
   0.0841514961600000    7.1238269310300000    1.3426206487200001 O
   2.2274245582200001    7.0219106267399996    3.7609063689600002 O
   2.3781607495200001    5.4200826191700004    2.1198894818400000 O
   4.3324453384199995    7.1493006238199994    1.3128042283200001 O
   6.6745034045999994    5.6596386904200005    2.1252494764800001 O
   6.1388657406000000    7.3471470222599997    3.8764827035999998 O
   6.6159180351000000    7.2891798362999998    0.0911895192000000 O
   8.8610855909400001    7.5969097971299995    1.3952924575200001 O
  10.9713922691399990    7.3146104628300002    3.5277350004000003 O
  11.2678959076199998    5.5912925358000001    2.0416938890399998 O
  13.4565924531600007    7.1832799029599999    1.4903801546400000 O
  15.5255986483200008    5.4510041938500002    2.1536968939199999 O
  15.5057941504799999    7.2889214387400001    3.6671180644799999 O
  15.7045086759599997    7.2940032574199991   23.2103082182400016 O
   2.2963526681399999    8.8699915089899992    2.0268436874400000 O
   2.4013482220799998   10.8576932061600004   23.1089091854400017 O
   1.6908706719000000   10.8396915094799997    3.7458937432799999 O
   2.1371766597000001   12.4613945960399999    2.0105780760000003 O
   6.5605570633799992    9.2386171614599988    2.2938688749600002 O
   4.4214422410799994   10.9211082740099990    1.5234914635199999 O
   6.8462069912999999   12.8071089981900013    2.1517710083999999 O
   6.2522482527000003   10.9596095104499991    3.7732273956000002 O
   8.7187187381399998   10.6578011603699991    1.8598485297600000 O
  11.1331055086199999    9.2302623070200003    1.9774899705600000 O
  10.9587942122399991   10.7573918866200007   22.9444896096000015 O
  11.3250012256799995   11.2180932029699996    3.2900157576000000 O
  10.7722020128399993   13.0143007750499997    1.2839391489600001 O
   0.2767519996200000   10.0107090707399990    1.2784399336800001 O
  15.3146913181199995    9.1809729724500002    2.1474783719999997 O
  13.2494028712200009   11.2685022603000018    1.0971514569600000 O
  15.5627056522800000   12.4838105843699996    1.7902150063200000 O
  14.7338944655400006   10.7972066439899983    3.8996861435999999 O
  17.6856984856799997   14.2529079457800005    0.9885129508800000 O
   1.9483996224600000   14.3254961270100001    3.7664287876799998 O
   2.2483214749800000   16.3152004052700015    1.4058500227200001 O
   4.3160942939400000   13.7369095515900010    1.4620719578399999 O
   6.4959633898199991   16.2464020549200008    2.1830260420799998 O
   6.5082795321599995   14.4473090434200007    3.6668628266400001 O
   8.7277752433800000   14.5795009284900008    1.4858090769599999 O
  11.0850919351199995   14.6630925391500000    3.5275261694399997 O
