Mg12 V24 O60
1.0
  17.6196599999999997    0.0000000000000000    0.0000000000000000
   0.0000000000000000   21.5331299999999999    0.0000000000000000
   0.0000000000000000    0.0000000000000000   23.2034400000000005
Mg V O
12 24 60
direct
   7.6620677279399994    1.8839550768300000   23.1864086750399991 Mg
  16.6351967368199993    2.0517627589199998   23.0450069116800016 Mg
  12.3229963877399999    5.3569474820099998   22.8868058577599989 Mg
   3.6654354894599996   12.4933928272199992   22.7028025785600001 Mg
   7.7636979268199999    9.0901462301099993    0.2140053271200000 Mg
  16.3969965532800011   12.6251971159499998   22.6841006059200012 Mg
   8.2941025518000000   16.0943996902500004    0.3334102293600000 Mg
  12.3017999367600002   16.3040031776700012   22.9896899107199992 Mg
  16.4338040230199987   15.9467900840999981    0.0551545768800000 Mg
   7.8367842764999995   19.8424993643099974   22.7748028528800006 Mg
   0.9682707956400001    3.7776000621599999    5.7721805481600006 Mg
   4.9272674403599996    3.5590603257900004    6.1529025916800002 Mg
   1.8481085177399998    3.6902401537500000    1.5660697759200000 V
   1.8213266345400001    0.1475019405000000    1.7651552911200001 V
   5.8233152496599994   21.4870060355400021    1.6352392305599999 V
   6.0827823628199997    3.9232932197400001    1.7584727004000003 V
  10.4059069010999998    3.5610413737499997    1.6029632455200002 V
  10.0863919866600007    0.2859169001400000    1.7317191340800002 V
  11.3534922158999994    1.8254926288800002    4.0397885143200005 V
  14.8650023555999997    3.3740046065699998    1.6222685076000001 V
   1.2250068615000000    7.2156657304800005    2.0693059826400000 V
   6.2515082269799995    7.3296836538300001    1.7498410207199999 V
   7.1463578993999999    5.4602203734899994    4.0303215107999995 V
  10.3325033975400000    6.9684223318200003    1.5927305284800000 V
  14.7440081503799991    7.2835381562399997    1.7554330497599999 V
   1.7066402676000001   11.0447945727299999    1.7878018485600002 V
   5.9816631340799997   10.7242093332900001    1.9606442731200002 V
  10.6025070673799995   10.7188906501800005    1.7896349203200002 V
  14.5397081926799991   10.7994030232499991    1.5808503672000001 V
  15.9931010870999994    9.0410291605800008    3.7952010532800005 V
   1.5799020532199999   14.1900096730500014    1.9382297500799999 V
   6.0914512355400001   14.3045013252599986    1.7618604026400000 V
  10.6120040641199989   14.2754961991499982    1.7478455248800002 V
  14.4804004171200003   14.2501086388800005    1.8559503518400000 V
   1.4296768320600000   17.7451079029200010    2.1145990975200002 V
   5.9929573361399999   17.7277091338800012    1.9018235527199998 V
   0.2345000549400000    3.1779454579199999    1.1212598311199999 O
   1.8918933728399998    3.7084356486000001    3.6289484056800001 O
   2.7480326522399996    2.0234466929699999    1.7766409939200001 O
   4.2087377055599999   21.4435952454599992    1.2124725537600001 O
   4.5460132372800004    4.5865136237400002    1.6366546404000000 O
   6.3004204031399995    1.7838906217199999    1.6710189350400000 O
   6.6404269821599993    3.7056148085699996    3.4332737961600004 O
   6.4167630181200002   21.1379970644999986   23.1210909914399991 O
   8.7095212756200002    3.5264807001000000    1.3941786923999999 O
  10.5107086387799988    0.2668816132200000    3.8125108195200004 O
  10.6705013353199991    3.5298614015099998    3.5168293836000002 O
  11.2347004681799998    1.9906086697200001    1.9928738512800002 O
  13.5863964883800001    2.6805301549200000    0.9110830716000000 O
  15.6459056867999990    1.7224566018300000    1.9287163396800000 O
  15.6838055754599992    3.9430606330800000    0.0718610536800000 O
  15.5803957909199990    0.3458436009300000    0.0688446064800000 O
   1.8624156816599999    6.9607780706700000    3.9631707554400002 O
   1.9451576050199999    5.4875674485899992    2.0681458106399999 O
   4.6165447362599998    7.1263893735000003    1.6123838421599999 O
   6.7789175097600003    5.5086483828599997    1.8222821603999999 O
   6.2240215573799995    7.2501187384799994    3.8080093521600005 O
   6.6357225329400000    7.5853895725800005   23.1099997471199998 O
   8.6660359547399999    7.1284780871099995    1.2908305706400001 O
  10.8074941918199983    7.1932066758900000    3.9507337115999999 O
  11.2951006626600012    5.3841007589399998    1.6665174676799999 O
  17.3561932240200001    6.7848954648299999    1.6738033478400001 O
  13.2377034169800005    7.2158595286499994    1.0162874685600001 O
  15.1023920347800011    5.3578518734700005    2.3256111808800002 O
  15.2358961985999990    7.3103038368299993    3.8963216448000004 O
   2.0302958021399999    9.1295949242700001    1.8834696316799999 O
   2.2572898819200002   10.9688902894799991    3.7548502711200000 O
   2.7897560071199998   12.6074107505700006    2.2316372488799998 O
   6.9167032509600004    9.2177946247499989    2.1285443649599998 O
   4.4631479763000002   10.4946015681000002    1.7153607088800003 O
   6.4697277160800004   12.4949001463199991    2.3864506005599999 O
   6.0350859431999995   10.8408973647600000    3.9744940341600001 O
   8.7852329546399996   10.5255016096500000    1.6393694428800001 O
  11.1458973817799993    8.6145224546700003    1.8919388872800000 O
  10.7525032329600005   12.6208904899500016    2.0744107394399998 O
  12.9604933061999983   10.4969056130100000    1.1287313388000000 O
   0.0288433834200000   11.0239935691500008    1.4240415196800000 O
  15.4552962049199998    8.9237166683400009    1.7573357318400000 O
  15.4221007654799998   12.4048916629200008    2.1194022096000000 O
  15.1023039364800002   10.7666941987799980    3.7209036384000003 O
   0.0276981055200000   14.1531018882300010    1.5588767095200002 O
   2.2393354483800003   16.0659974917799993    2.1986187537600004 O
   2.4379266362399998   14.2323007403700004    0.0044086536000000 O
   4.4663018954400000   14.6748926943899995    1.2365113176000000 O
   6.8263496344799997   16.0709070454200003    2.1216065364000003 O
   8.8672877112599995   14.1903972693900009    1.6770286260000002 O
   7.0772007338999998   14.0049970200900002    0.1996888046400000 O
  11.4083950764599997   16.1144039680199995    1.8399399782400001 O
  11.1250004650199994   14.6464904959200002   23.0644978012800017 O
  12.8368913912999982   14.0585068481399986    1.9410837731999999 O
  15.0710995186200005   16.1181937989000019    1.8855579412800001 O
  15.0216058936799985   14.3720938203299990    3.7323197308800000 O
   2.0399161365000000   20.8463954180400002    0.1408912876800000 O
  17.3959079376599988   17.6209048090800025    1.8634450629600001 O
   1.9182523841999999   17.6811975730799986    4.0799304655199995 O
   2.1174602601600001   19.6075083166199988    2.2487613876000001 O
