Mg12 V24 O60
1.0
  17.6196599999999997    0.0000000000000000    0.0000000000000000
   0.0000000000000000   21.5331299999999999    0.0000000000000000
   0.0000000000000000    0.0000000000000000   23.2034400000000005
Mg V O
12 24 60
direct
   7.8949115348399994    1.9687310096399999    0.3191633172000000 Mg
  12.2665077577799995    2.3406512310000003    0.0803303092800000 Mg
  16.6772020062599999    1.9205613978300000    0.7807493491199999 Mg
   3.5197913799000000    5.4781790039100002   22.4732973535199996 Mg
  16.6677931078199997    5.5237646401199996   23.0231956780800004 Mg
  16.7507993260799992    8.9861196790799998   22.6537969132800008 Mg
   3.2724818321400000    9.0940006603799990    0.1021183394400000 Mg
   3.1587469268399997   12.4029106149599997   23.1481926093600023 Mg
  11.8841082767999993    9.0208310846400011    0.0070770492000000 Mg
  16.8298058815199987   13.2046105779899996    0.0334129536000000 Mg
  12.1944081090599994   12.3855979784399999   22.9666024879200030 Mg
  16.5586040747999981   16.4322975662099999   22.9258108404000005 Mg
   2.2444275301199998    3.5142498822600001    1.7650856807999999 V
   5.5425459675599997    3.4957313904599996    1.8842353452000000 V
   6.2474909444999991    0.0625968089100000    1.8221429397600000 V
  10.4471016661800000    4.0296238156799999    1.9177643160000000 V
  14.7443076846000007    3.7471522163400000    1.8612407361599999 V
   1.9434308783399998    6.9163982897400000    1.8411929640000002 V
   5.4660590234999997    7.3533916299600000    1.8972292716000001 V
  10.0087069057200004    7.3145673965700002    1.8800355225600001 V
  11.8055069735400000    5.7049013296800002    3.9853300406400001 V
  14.9696983753199984    7.0411397118299996    1.6735249065600000 V
   1.4045864362200000   11.0042907552000013    1.8223285672800000 V
   5.7771341207999996   10.7626029040799995    1.5239091254399999 V
  10.2395068320600000   10.7332963141499995    1.6956841917600001 V
  11.4560033977799982    8.9726399397000005    4.0373521531200005 V
  15.0246012358799987   10.8534081132899995    1.6842680992800001 V
   1.5551464309199998   14.3742901995899999    1.9189708948799999 V
   2.9668335901199998   16.1268931834199982    3.9170887236000000 V
   6.0787650803400002   14.2638898420799993    1.8533979734400001 V
   7.6162742315999994   16.2007948855799988    3.9136546144800004 V
  10.8021025758600011   14.6718995893199988    1.9673732707200000 V
  14.7735034612199989   14.3138897699400012    1.5521709153599998 V
   1.5917953237200000    0.1102496256000000    1.8720303357600001 V
   1.7058297632399999   17.9377002176399998    1.7990323135200001 V
   2.8772023796999999   19.4446101881699995    4.0658691808800000 V
   2.4071274705599999    1.6178486562900001    2.1831420592800002 O
   2.2079195945999999    3.7510066466099996   22.9634932269600007 O
   4.1374309415399999    3.0194400879899996    1.2149553218400000 O
   0.5446060709400000    3.0594271104000001    1.5861175480800001 O
  17.5472960563799987    0.2716404349500000    1.8456016176000001 O
   2.4880545689400000    3.3493061064600003    3.6575582471999999 O
   6.6604957748999993    2.0053803969000001    2.1322801188000002 O
   6.8093114232599996    0.0486433406700000    3.7939016606400005 O
   6.0822009140399995    3.6167691141899998    3.7307883038400003 O
   8.9014522319999987    4.4726033660400004    1.7680789245600002 O
  11.0563014106799997    1.9823184146700001    1.9237508035199999 O
  13.0183915089599989    3.6175443068700002    1.6338238207200002 O
  15.2946049057200000    2.0287223098200000    2.3152392431999997 O
  13.4137062007199983    0.1459084888800000    1.5667426756800000 O
  15.8003067673799986    3.5924366772900003    0.3265188076800000 O
   3.0503331588600000    5.2568830269000006    1.8018863366400002 O
   2.1230456923799998    7.1177761215000004    3.6612243907200002 O
   2.3787774376199997    7.0688097838799999   23.0077885939200009 O
   0.3826109169000000    6.4483111097999997    1.4264314740000001 O
   4.0761145247399995    8.1640709081999994    1.7035037510400000 O
   5.8511543124600003    5.4926062010100001    1.8653013381600001 O
   6.0953980393800000    7.3070523341999998    3.7991920449599998 O
   8.3103302586599987    7.1989990878599999    1.5819177254400001 O
  11.2937968078199997    5.8026402067500005    2.0360090462400002 O
  13.4617021545600011    6.8171305604399999    1.3505330217600000 O
   8.4398523793199995    5.2613188516799996    3.9911773075200001 O
  10.6576918425000002    7.3935939836700006    0.2181123360000000 O
  15.7327001319599997    5.3878044572999997    2.0487245313600000 O
  15.6232996630199992    7.2920437425900007   23.0317113405600011 O
   1.8242162587799999    8.8420630393799993    1.7469637941600000 O
   1.8204985105200000   10.8090067992299996    3.5563448419199997 O
   2.3870410581600003   12.7197921560400005    2.0166341738400000 O
  17.2616989874399991   11.0893896849600004    1.8711486050400001 O
   1.9635349103999999   10.6239080137500004    0.0168689008800000 O
   6.4285505706599997    8.9839232998199989    1.9706449557600001 O
   4.1246919273599998   10.7772023662199992    1.2582297374400000 O
   6.5450870018999998   12.4390001408399993    1.9024964524799999 O
   6.9384459113999997   10.8829946339100019    3.8331154742400004 O
   8.5696916538599996   10.4272028712000004    1.0296062431200002 O
  11.1716925640200007    8.9431610847300007    1.9589040151199999 O
  11.1500027625599998   12.7376000545500006    2.2521954967200002 O
  11.0243041081199991   10.7745107249699981   23.1736003761599996 O
  10.5730998548400006   10.6848037053899994    3.4984986659999997 O
  13.4929946707199999   11.1837047943599988    1.0408135046400000 O
  14.9424936202799987    8.7749442731700000    2.1754385172000004 O
  15.5776999829400005   12.7144088735400000    1.7079588115200002 O
  15.4357912413000005   10.7264057125499992    3.7570313944800002 O
  17.4270066375599981   14.1585928363800004    1.7782884381599999 O
   2.4702234730199999   16.0936029644400023    1.9586487772800001 O
   1.9161380250000000   14.5597981145400013    3.7946209672799998 O
   4.5204471106199993   14.5142986108500001    1.4591019175200000 O
   7.0443048286799996   15.9756014120399996    1.9753552540800001 O
   6.8103333635399999   14.2507976990399996    3.9141882936000001 O
   9.0374055285600008   14.7245911584299982    1.5997611708000001 O
  11.4538009402800007   16.4470046940000003    2.1059906212800001 O
  13.0594981757399999   14.4352935568799996    1.3670770744800000 O
  11.0579928980400002   14.5467059714999998    3.8307951302399998 O
  15.3560975191199987   16.1695933802099994    1.6585586877600000 O
  14.9217024214800009   14.3107028666999998    3.9336559797600006 O
  14.9528011213800003   14.2785969698699997   22.8830933073599994 O
