Mg12 V24 O60
1.0
  17.6196599999999997    0.0000000000000000    0.0000000000000000
   0.0000000000000000   21.5331299999999999    0.0000000000000000
   0.0000000000000000    0.0000000000000000   23.2034400000000005
Mg V O
12 24 60
direct
   3.6178976467799999    2.0285285116499998    0.7740667584000001 Mg
  12.2354971561799992    2.0092348271700002    0.3594908959200000 Mg
   3.8653129124999999    5.3178648510599995    0.4332778351200000 Mg
   8.1439830486000009    5.3894409751800003   22.9654887228000000 Mg
  16.7139037580400007    5.5738507005000004    0.2986282728000000 Mg
   3.4666152460199999    8.6987169929700006   22.9617065620799998 Mg
  12.2840040801600008   11.8455040117799992    0.0236443053600000 Mg
  12.8452078708199995    8.9561670952500005    0.1735153243200000 Mg
   3.5741656506599999   15.9906961361699995    0.1019791188000000 Mg
  16.6852013319000001   16.2894898480499997   23.0698113890400016 Mg
   3.6843061453199999   19.8974088458099985   23.2182902015999986 Mg
   8.1972649004399987   19.5015007176299981   22.5366891516000010 Mg
   1.4570049247200001    3.9657996183600002    2.1494738678399998 V
   2.6096830819199996    1.8765907463700000    4.1724657842399999 V
   6.4853034955200002    3.7835001397800001    1.9475575329599999 V
   6.3621773114400000    0.1376397669600000    1.6947096472800001 V
  10.2102053374800015    3.4669846619100002    2.1349485144000000 V
  14.9997046562999987    3.6830050220699997    1.8152979249600001 V
   1.6023495000599999    7.4224914441299994    2.0873582589600002 V
   5.9301784875599992    7.3411392789899992    1.7893564790400001 V
  10.3183019515800005    6.9026816859299993    1.9039582692000001 V
  14.9648001098399988    7.4043174824100007    1.8382229236800001 V
   1.8012754614599999   10.9537094328299993    1.7607466375200003 V
   5.9028680145599992   10.9109015703900010    1.5588999129599999 V
   7.1450011855800000    9.1490178075300008    3.8624446224000000 V
  10.6007979603599995   10.5655101651900001    1.8770190753599998 V
  11.7331958889000010   12.4299992925000016    3.9143043108000004 V
  15.0053077081800001   10.7511903451799995    1.8154603490400001 V
   1.5314656078800000   14.7324938171399982    1.8977861541600001 V
   6.1240652261999999   14.7726100383300007    1.5257886040799999 V
   7.1806281380999994   16.4543044250699992    3.9645397584000004 V
  10.8274044076199996   14.2742903438699997    1.5907814395200000 V
  14.8275958174199989   14.5495052783999981    1.8595236816000000 V
   1.4564939545800000    0.0448319766600000    2.0253818707200000 V
   1.8450074575800000   18.3069933971400012    1.6566792091200002 V
   6.1089299382599993   18.0243064665000006    1.6129871316000000 V
   2.1686453724599999    1.9137784618800000    2.2504784421600004 O
   1.6982356897799999   21.5269069254300014    3.9809677939200001 O
   2.2275302761800000    3.6327251635200000    0.3246161256000000 O
   4.8710431053000001    3.7448481714300001    1.4210018690399999 O
   6.6580466421599995    1.9181281541400002    2.3310175823999999 O
   8.9689002904800006    0.3365197556400000    1.7726500022400002 O
   4.7297510517600001    0.6629189401800000    1.4958329630400000 O
   7.0138051972200000    0.0754090212600000    4.0025469931200002 O
   8.5397910908399997    3.7724321109599996    1.5495489266399998 O
  11.3070996511199997    1.7681499036900001    2.2144899067199999 O
  10.8577983211200007    3.4911017675100000    0.1171541685600000 O
  17.5527933902999997    4.3097698369800002    1.4862963492000001 O
  13.2726079634399987    3.5501025437100004    1.3879369670400001 O
  16.0055934260400008    1.9535286198599999    1.9703201076000001 O
   2.5428164722200002    5.5866844459800005    2.5265993781600002 O
   4.3041481644599999    7.6402129215599999    1.7313942859200002 O
   1.9259521756200000    7.4165913665099996    4.2607316700000002 O
   2.3479782719399998    6.9118117330500004    0.3565672624800000 O
   5.8786057427400005    5.4038251060200002    2.2506408662399999 O
   6.5547425755799997    7.3698860075399999    3.7250802575999997 O
   8.7215202640799987    6.9472552650299999    1.7649696635999998 O
  10.8515081024999986    5.1366420289799999    2.3269105735200002 O
  10.8373066565399991    7.0096367426399997    3.7158452884800002 O
  13.3853033087999993    7.8904709584199999    1.9231707175199999 O
  17.5564054206000009    7.2850885416000004    1.5088964997600001 O
  15.1298963240399988    5.6475155382299995    1.9779076324800000 O
  15.5849945221799988    7.4599590903299999    3.9011711637599999 O
   2.2064571628200000    9.1048748910300006    2.3351013878400000 O
   2.1111876611999998   11.0672105610600013    3.7986815692799998 O
   2.0750321188799998   12.7894948978499983    2.0546878154400003 O
   0.1348961169600000   10.6671896050499999    1.4249928607200000 O
   6.6459066964200000    9.1408782843900003    1.9089934156799999 O
   4.3500121394399995   11.2360948996499985    1.3458691303200001 O
   6.5344271076000000   12.9365015763599995    1.4640442502400000 O
   6.1408215228600005   10.9141100067599996    3.4607234656800001 O
   9.0608925353399989   11.0391098264099998    1.6027080076800000 O
  10.6055024095799997    8.7204654542700002    2.2533788721600003 O
  11.5584969599999994   12.3959984802300003    1.9863768880800001 O
  11.2452017855399991   10.0758898552499989    0.0618371676000000 O
  13.4599049492400002   10.4893044181199997    1.3685852980800000 O
  15.8410081819799995    9.1693450822500004    2.0671480627199998 O
  15.6561074699400002   12.7686938942700010    2.0052180813599998 O
  15.7069930480199993   10.8891961753499995   23.2505893900800018 O
  17.4908074264199982   14.8717055025900002    2.0067727118400001 O
   2.2163770314000000   16.5010097840400007    1.6573753123200001 O
   2.3051272588199998   14.4240101967599994    0.0738333460800000 O
   2.0355640804799999   14.7183034844699989    3.6583703675999999 O
   4.4781246873000002   14.5672916437800009    1.4334389128800000 O
   7.1164220970600001   16.4706911369999993    1.8367611069599998 O
   6.4341360028799999   14.6576015909999988    3.4939507917599997 O
   9.2791825030800013   14.2543075992299997    1.1148092748000000 O
  11.0828013793199993   16.3262038346999994    1.7490056968800001 O
  11.2073018968799989   13.9347990162899986   22.9779953769600027 O
  13.2374038827600007   14.5875973853699996    1.0434122899200000 O
  15.7627064129400001   16.4175904384199995    1.8066894487200000 O
  15.2927019824399988   14.4675071193600004    3.6586488088800002 O
   0.2134445612400000   18.4193102032200002    1.3016201702400001 O
   2.7243342095400003   20.1547082161800013    1.9939644129600000 O
  17.6224086669600020   21.3670019020499993    1.2909001809600000 O
   2.7593973329399999   18.2878073783099993    0.0820705672800000 O
