Mg12 V24 O60
1.0
  17.6196599999999997    0.0000000000000000    0.0000000000000000
   0.0000000000000000   21.5331299999999999    0.0000000000000000
   0.0000000000000000    0.0000000000000000   23.2034400000000005
Mg V O
12 24 60
direct
   7.7616188069399996    2.1439891547099998   22.9841906954399988 Mg
  16.5821967995400001    1.7987484814199999    0.1700580117600000 Mg
  12.1916065831200005    5.1488513136899998    0.5071807915200000 Mg
   3.3660422267399999   12.2728935760199995   22.9479933290399991 Mg
   7.9031575357200001    8.7189366020399994   23.0437075190400016 Mg
  16.9616009383200002   12.8509073846100002   23.0044937054400016 Mg
   8.1456921556200008   16.2103986615599993   22.5997096946400013 Mg
  12.6378068529599989   15.8074922661299997   23.2094960978400024 Mg
  16.6061066781599997   16.1124013869299993   22.9001014288799993 Mg
   8.2128935388599995   19.6145927163899998   22.5595909468800002 Mg
   1.1462469813000000    3.7535906222099999    6.2623300147200007 Mg
   5.2740399688200004    3.5991334807199995    5.7440579788799999 Mg
   1.9393254975599998    3.4251457903200002    1.4830478676000001 V
   1.7029225193399999    0.0357234626700000    1.9815273691200002 V
   6.7362779325599993    0.1399653450000000    1.4156418744000001 V
   5.8662191217600004    3.5887975783199999    1.8123278846399999 V
  10.2969997826400004    3.5863643346300003    2.0019695997599998 V
  10.6611981548399992    0.0886518962100000    1.6747546888800002 V
  11.3848023517199994    1.6239209989499999    3.9938689065599999 V
  14.9181961091399984    3.6978413486399999    2.0479820212799997 V
   1.7881311951000001    7.0033706018099995    1.8690138885599998 V
   6.1792852406400005    7.0114455255600001    1.7174954253600001 V
   6.8968987531200003    5.2921758269699994    4.2273651232800002 V
  10.4927013462600005    7.2227716633799997    1.7727892228800000 V
  14.7036943683000008    7.0580432188800000    2.1042039564000001 V
   1.9730671464599998   10.4416946676899993    1.9057913409600000 V
   6.0503798080800006   10.7576072179199986    1.7642967638400002 V
  10.5778043040600007   10.9432012653899999    1.6923660998400001 V
  14.8158082648799994   10.7157037469400009    1.8024896260800001 V
  15.8296082619600007    8.9050689777599992    4.1298642684000004 V
   1.6128860567399999   14.2832911922100010    1.6360977578400002 V
   5.9282931839400002   14.3397941253300001    1.8045779356799998 V
  10.4700072241799980   14.4138896256600013    1.5527510013600001 V
  15.0709938006599984   14.4298026087299984    1.8149034664799999 V
   1.5005783439000000   17.9471963279700013    1.7997284167199998 V
   6.4083936796199996   18.0448060062600000    1.6206906736800002 V
   0.6163533264600000    2.6669212167600000    0.8391060007200001 O
   1.8866603338200001    3.4251888565800002    3.5953498245600000 O
   2.6255936349000000    1.5821897930100000    2.1641152384800000 O
   5.0664979936800005    0.2040479398800000    1.4760636321600000 O
   4.1313873981599993    3.2123338665300003    1.4267331187200001 O
   6.7566286398599997    1.9316509597799998    1.7581710556800001 O
   6.5279078333999996    3.3946764113700003    3.5794786716000004 O
   7.1324559876600002   21.2379969202199987   22.9721017031999999 O
   8.8635171040199996    3.7474967464200000    1.3304388427200000 O
  10.5818039668799990   21.4626951317699977    3.7551055089600003 O
  10.7920946089799994    3.6065624105700000    4.0166314812000001 O
  11.3177947847400002    1.7396831058300000    1.9940804301600001 O
  13.3197934129199993    3.5053136333099997    1.6826438584800001 O
  15.6974079529799990    1.9159533080100000    2.1670620753600001 O
  15.8875064647200013    3.7573373868300002    0.1911731421600000 O
  15.6622038722999992    0.0634150678500000   23.0706931197600014 O
   2.2968812579400000    7.0220398255200003    3.7096267665600000 O
   2.2145445867599998    5.3344668942900002    1.9189940983200000 O
   4.4768032127999993    7.0255497257099995    1.4171733014400001 O
   6.5082442928399997    5.2572706232400002    2.3024309443200002 O
   6.5848193351999997    7.1045332465499991    3.7309507279199998 O
   6.7439424846599998    6.9493224455100000   23.0118027890400008 O
   8.7626797898400000    7.1412687663300005    1.4298191762400001 O
  10.8857078625600003    7.0776383671799996    3.9149308036800003 O
  10.8022963921200006    5.3634720203999997    2.0945281219200003 O
   0.1162545166800000    6.8361443142300002    1.7638094916000000 O
  13.1422048597799996    7.3269920125799999    1.4726991333599999 O
  15.6136969483200012    5.4010042659900002    2.3417839785600001 O
  14.9834945690999994    7.0431638260500007    4.0185805701600001 O
   2.7324392531399999    8.7424292468699996    1.8990159364799999 O
   1.9313261719199999   10.5205059234899991    3.8452972802400001 O
   2.1963434779799997   12.2284061294399979    1.6959858364800002 O
   6.6153189666599994    8.9955942562800004    1.7557346944800001 O
   4.5454494081599996   10.8329085735300001    1.3324343385600002 O
   6.7155572123999994   12.5604900602999994    1.7711185751999998 O
   6.3055653438599997   10.8896053048199999    3.6784181397600002 O
   9.0158214450600003   11.3733040040100004    1.1675971007999999 O
  11.0765992590000000    9.0168259224600007    2.0357306049600004 O
  11.1740007394800003   12.7113942353400002    2.0554071220800001 O
  13.0736996216999994   10.5675988788000002    1.2877909200000000 O
   0.2857027869000000   10.3085983911600003    1.5981601334400002 O
  15.3972041858999997    8.9367872782499997    2.0444318949600002 O
  15.4121985165600002   12.5995942243800005    2.1696376572000000 O
  15.3131055487199994   10.7053893776700004    3.6912032352000002 O
  17.5762980167399974   13.9807076494500002    1.4974572038400000 O
   2.0675085240600000   16.0513980296399978    2.0437125883200000 O
   2.2691126737800000   14.6349918045000003   23.1842971620000000 O
   4.2390082814399994   14.3059009787100013    1.6059796927199999 O
   6.2812678327199993   16.1226080905499991    2.1780837093600001 O
   8.7597549262799994   14.0164957115100002    1.3910462280000002 O
   6.8745041652599994   14.5894923008099990    0.0912127226400000 O
  11.1174063915599994   16.0520009572800006    2.0717191403999999 O
  11.2591036972800005   14.5038981090599997   22.8752969515199993 O
  13.4048963707199995   14.3136098392500006    1.4101194556800001 O
  15.6099087214200001   16.1672893352999978    1.7698191825599998 O
  15.9697021786199986   14.2439932299599992    3.9589245259200001 O
   2.2440222779400001   21.3951026366999990    0.1969275952800000 O
  17.4002071347000005   18.0390997268099973    1.5884610955200003 O
   2.1791466898200000   17.9130017175300011    3.7558712224800002 O
   2.5478028360000002   19.8173917347299984    2.0291176245600000 O
