Mg12 V24 O60
1.0
  17.6196599999999997    0.0000000000000000    0.0000000000000000
   0.0000000000000000   21.5331299999999999    0.0000000000000000
   0.0000000000000000    0.0000000000000000   23.2034400000000005
Mg V O
12 24 60
direct
   3.5117920542599999    1.6712292855599999    0.3018303475200000 Mg
  12.3287051575800000    2.3480370945900000   22.8710971288800025 Mg
   8.1708177907799993    5.2984204346699997   23.0357951459999981 Mg
  17.1092008301400007    5.4917879420700002   22.8733014556800001 Mg
   3.8296507206599997   12.2256068225399996    0.6697672955999999 Mg
  12.1352941497600000   12.4672946736599997   22.5714943115999986 Mg
   8.0661217710600006   16.1170094767499990    0.1381532817600000 Mg
  16.3636072975799998   16.3709066125800007   23.0799048854400013 Mg
   1.0312786997999999   21.5432936373600015    5.6347233696000005 Mg
   1.0324063580400000    3.6724968546300003    5.7331987689600004 Mg
   5.1648685554599991    3.6189224271899998    5.5915185643200003 Mg
   5.2166351165400000   21.2622001583400007    5.3133789290399998 Mg
   1.7707758300000001    3.3715498297499997    1.9258391131200001 V
   6.2320385026800000    0.1767008647800000    1.7068218429599999 V
   5.9322576074399995    3.7308947031900002    2.0931591189600001 V
  10.6746067160999996    3.8889048111300002    1.8972524750400002 V
  14.7194992033199998   -0.0138673357200000    1.6977957048000001 V
  15.0173066966399986    3.6399602951999999    1.7792165757600000 V
   1.6020499658400000    7.1144169532200001    1.8490589301600000 V
   6.1625994226199996    7.2762814914300007    1.8890616607199999 V
  10.4287948394400001    7.3241065731599999    1.7954357803200001 V
  15.1057926291599998    7.0727934129300003    1.6539412032000000 V
   1.2313499391000000   10.8387009854999992    2.1024869018399999 V
   6.4320216436799997   10.6956994691700000    2.0274469768799999 V
  10.4588011204199987   10.9534079690100015    1.8779704164000002 V
  14.7942946600200003   10.7129044400400009    1.5474374136000000 V
   1.7090717806800000   14.1799106350799988    1.6107596013599998 V
   5.9961464945999996   14.6138893370999998    1.8173862345600003 V
  10.4607040436999998   14.3212971666599991    1.9043991345600000 V
  14.8793976178200005   14.4610041140999996    1.8099147268800000 V
   1.4980234931999998   21.4140948573600021    1.8628881803999999 V
   1.7503370243999998   17.6592983798700018    1.6565631919199999 V
   6.3061467926399999   18.1381090585500004    1.7284474490400001 V
  10.3902958823399985    0.2785741028100000    1.7788453207199999 V
  10.4383975541399998   17.8012017065700014    1.8016775056799998 V
  14.8231028041199995   17.8549914653100004    1.7393530658400000 V
   0.1424901904200000    3.4519976034300002    1.8970900509599999 O
   1.8154945270800000   21.4132981315500004    3.8514461918400000 O
   2.1741427063800001    3.5516744622000003    4.1183553621600000 O
   2.4134529285000004    1.3779695880899998    2.3137774264800002 O
   2.2982027324400001    0.1405252063800000    0.2728724544000000 O
   4.6306052249400000    0.0512273162700000    1.1914270336799999 O
   4.4017258415400002    3.6501885319500000    1.5323551776000002 O
   6.5812777835400000    1.9384769619900002    2.1470375066400003 O
   6.8312655196200005    0.1168172302500000    3.6444251001600003 O
   6.2774267468399998    3.5843186872799997    3.8752529212800000 O
   8.9391230650799987    3.8983793883300000    1.8369467344800001 O
  10.6687041300000001    0.1448748986400000    3.6442858795199999 O
  11.1187983447000001    3.8693096628299997    4.0034287238399999 O
  10.7661937087800013    2.0876800197600001    2.2685771253599998 O
  11.2350000023999996    0.5061577537799999   23.1041988871200026 O
  13.0757082629399992   21.2274026202599977    1.7769658420800001 O
  13.3232997252600001    3.8424578497199997    1.2710612397600001 O
  15.3350067860999992    1.8077062634999999    2.0472859180800000 O
  15.3575070919200005    0.0899008177500000    3.5909411709600003 O
  15.2295002620199984    3.7050764803199998    3.9732410484000003 O
  17.5631008913999977    6.9534137402100002    1.3219231802400000 O
   2.1360842407799998    7.1796192708600000    3.8926555012800002 O
   2.2794377945400002    5.2251001270200002    1.9179731469599999 O
   4.7283943379400002    7.4380383639899996    1.3309029115200000 O
   6.6247278650999997    5.4561506119200001    2.4219518637599999 O
   6.1214222771999998    7.4381675627699995    3.7413690724799999 O
   6.7824062024399998    7.0936805490299992    0.0247812739200000 O
   8.8367352208199996    7.2136200831299995    1.2240742737600001 O
  11.0344001732999999    7.2756139644000006    3.6978162156000001 O
  11.1889950701399989    5.7382561480500005    2.2777192807200000 O
  13.4639046120599986    6.7619196151200009    1.4994294962399999 O
  15.5328931875599991    5.3183816461800006    2.1058281972000001 O
  15.3717966361799991    7.2603900414900000    3.5268300662400001 O
  15.8267010180599996    7.4648686439700001   23.0119884165600013 O
   2.1329831806200001    9.0473599008000001    2.2046284447200000 O
   2.4757384266000000   10.7938044094499990    0.1567160337600000 O
   1.9811721900599999   10.8522022580099993    3.9777425157600002 O
   2.3777731169999998   12.4498959046200000    2.1306790814400003 O
   7.1421820399799998    8.9128855039499992    2.0552911048800002 O
   4.7194259309999991   10.6379045482499990    1.6429195692000003 O
   6.5670939572400000   12.6411962315399986    2.2279479019200004 O
   6.6904139575800006   10.8764916286500011    4.1878264615200003 O
   8.8584074026199993   11.5585104551399986    2.0261475842399999 O
  10.9454913689400009    9.0912659528699997    1.9253750443200000 O
  10.7972043103799997   11.1326928093899991   23.1648062723999999 O
  10.8826068023999998   11.2359011014800014    3.8977834615200000 O
  11.4292919932199997   12.7655931235499995    2.0188385006400003 O
  17.5706949648599995   10.6536022000199999    1.0140135314399998 O
  15.3532078948800006    8.9953143255899999    1.9067426820000000 O
  13.1816024195399990   10.5956996134499999    1.2572319895200001 O
  15.4281971678399987   12.5358992258399997    1.7890084274400002 O
  15.0780945236400008   10.7326933865100003    3.8145759256799998 O
   0.1047488787000000   13.7615003860500007    1.3626684208800000 O
   1.5005078652599999   14.1725032383599991    3.6473487335999999 O
   2.4729545203200001   15.7931942678099997    1.8634450629600001 O
   4.3784855100000000   14.4201988327499997    1.4226957201600001 O
   6.7578267767400000   16.2290894184000010    1.9947997368000001 O
   6.3590762512800003   14.4711031520700004    3.7296977421599999 O
   8.9363920177800011   14.5450909867500009    1.1561810083199999 O
  10.8428039904599984   14.4740101246200012    3.9129121044000001 O
