Mg12 V24 O60
1.0
  17.6196599999999997    0.0000000000000000    0.0000000000000000
   0.0000000000000000   21.5331299999999999    0.0000000000000000
   0.0000000000000000    0.0000000000000000   23.2034400000000005
Mg V O
12 24 60
direct
   7.8057384355799995    1.6902430393499999   23.2068044988000004 Mg
  12.4402023660599994    1.7232748607700001    0.1725871867200000 Mg
   3.6229721088600000    5.6074423832999996    0.3278878106400000 Mg
   7.7384489540399990    5.3324643132000000   22.8769908026400017 Mg
  12.5678039437799995    5.4411850865700000   22.4648977082400023 Mg
   3.5561407384799999    8.5981357427400003   23.0288109105600007 Mg
   8.0811337213800005    8.5619170180800008    0.1546509276000000 Mg
  12.6720066130199989   12.4807959461700015    0.5764662633600001 Mg
  12.4277981254199990    8.7577608354300001    0.3466825970400000 Mg
   3.3897406694400001   15.7234053934799984    0.2489497077600000 Mg
  12.4332073610400009   15.9263982099900012   22.8656907273600005 Mg
   3.7674180815400002   19.7572066363799976   22.3953105916800013 Mg
   1.7687143297799999    3.6024495827399998    1.5904333879200001 V
   5.9365568044800003    3.7972813429799999    1.6845465405600000 V
  10.7726953633200004    3.6658000512000002    1.5440033044800001 V
  14.7670018066799997    3.4726048088399999    1.9719211449600000 V
  14.6019936907800005   21.2879107155600025    1.9216624939200002 V
   1.7081026993799999    6.9648478322400003    1.9565604676799999 V
   6.2539397400599999    7.0225781537699996    1.9247021445599999 V
  10.5261082216199995    7.0921947630599993    1.8824950871999999 V
  15.0256936547999995    7.1788010119200001    2.0353129430400001 V
   1.4901651248399999   10.6506090949500010    1.6183007193600001 V
   6.4107018550800001   10.7113971209399992    1.8051812251200001 V
  10.7406980607599998   10.6849975035600000    1.8700116364799999 V
  15.3520978563000003   10.5644981080800004    1.5887163333600001 V
   1.3696642700999999   14.5077956055899993    1.4934198052800001 V
   6.2150531504400002   14.2478045939699989    1.6760076746400001 V
  10.4241961081800003   14.3633944358099992    1.7554562532000000 V
  10.9621948066199995   16.3588049935199997    4.0932260366400000 V
  15.1692938838000000   14.0773052706299993    1.2628240185599999 V
   2.5837293227400000    0.2163648902400000    1.6245888516000000 V
   1.7784227624400000   18.0356974922699997    1.6286262501600002 V
   5.9207167301400005    0.0792634515300000    1.6570272607200001 V
   5.7126814045200005   17.8066065221999992    1.5745390315200001 V
  10.2490919271000003    0.3008393592300000    1.7956910181600001 V
  10.2339037801799986   18.0120971817900006    1.3739684961600001 V
   0.1634752054800000    3.0075538002299997    1.6695107114400001 O
   3.0209435659799997    1.9600100919900001    1.6879806496800003 O
   4.2485405175000004    4.1307649272900004    1.4664342045600001 O
   2.4042730856399999   21.3449950431900000   23.0072085079199979 O
   6.4599664244400001    2.0165560913700000    2.0706749856000002 O
   6.5959725799799998    3.7607180882400000    3.8642312872800000 O
   8.7637722087599990    0.5959078396200000    1.2994158434400001 O
   6.7839214931999994    3.5798397962399999   23.1461971135199995 O
   9.2234338988399998    3.7139265967499999    0.9966109514400001 O
  10.5476042068200009    3.6553564831499998    3.6171378547200002 O
  11.0235993217200008    1.8654365850299999    2.1509820914400000 O
  13.1693038968599989    3.2536128767400001    1.7112769034399999 O
  12.9716994099599994   21.5326993374000004    1.5499201816799999 O
  15.4372008140999988    1.4882407468199998    2.1632567111999998 O
  15.2474018365799999    3.8942450273700002    0.1971596296800000 O
  15.6006055409400002   21.4614892764899992    0.1615191458400000 O
  15.6397916647800006    3.4454084656500004    3.9069024134400001 O
   2.2022636837400000    5.4128259543599997    2.2830096650400002 O
   4.6215134803800000    7.0670871334799994    1.6253313616800000 O
   2.7114366184200001    8.8519252129199995    1.9227066487200002 O
   6.8305254938999997    5.3481404318400001    2.2306859078399999 O
   6.3872853269400007    7.1770352952599996    4.0385819354400008 O
   6.8140158724799997    7.0053301166399997   23.1613953667200008 O
   9.0891720896399999    7.3750324256099997    1.4467808908799999 O
  11.1245952128399992    5.4073996056000002    2.0479356144000000 O
  13.4870920846200004    7.1066004270300001    1.3113424116000001 O
  11.2853922299999994    7.0674531966899998    0.0216720129600000 O
  -0.0125980569000000    7.1063420294700004    1.6045874863200003 O
  15.4437024686399980    5.3506813411800005    2.3587688966400000 O
  15.4905002856000014    7.5482879895899995    0.2789517556800000 O
   2.1677467697999999   10.7899069129199994    3.5576906414399998 O
   1.8407434998599999   12.5942970743999982    1.7988930928800000 O
  17.5093080694199976   10.3225949256599989    1.4285661904800000 O
   2.0998934591400000   10.9079945978400001   23.1729042729600003 O
   7.0506831455999999    8.7391131448500001    2.1191701751999998 O
   4.7822752582200003   11.1807978218099997    1.5574612996800001 O
   7.1071365362399996   12.3930053751600013    1.9084829400000001 O
   6.3754801547400000   10.6213025050200010    3.9099188606399999 O
   9.0824061401999998   10.6916943069899997    1.4950904529600002 O
  11.3396079238199992    8.8101294075899990    2.2019136422400001 O
  11.4015938876999989   12.7099084493700012    1.9739166408000002 O
  14.0962918291199983    9.8045293509900002    0.9795332196000001 O
  11.4851991743999999   10.9283003394300007    3.8887109164800000 O
  11.4967048123799991   10.6290974980800002    0.2256534540000000 O
  15.4400023400399995    8.9202713675399998    2.5539794373600002 O
  15.2345042454600001   12.3734963593799989    2.1048536527200001 O
  17.2796005619999988   14.5512063956700004    1.3069801648800001 O
   2.3352392577599996   16.0658036936100004    1.8872749958400001 O
   2.2769005634999999   14.1402896758800001   23.1677995161600023 O
   1.5475523574600001   14.3068915026900001    3.3847089962400001 O
   4.5158483793600004   14.1240967621199989    1.4807739304800001 O
   6.5673230128199993   16.1481033164699994    2.0032921958399998 O
   8.9751552697800001   14.7254094173700008    1.1840019328800000 O
  10.5616999348200000   16.1737062080399987    2.1335563080000002 O
  11.4560914960799991   14.3852074965000014    0.1158779793600000 O
  10.2786048575999995   14.4478904379300008    3.9145363452000002 O
  13.4756040662999990   14.1680028141899985    1.2822452978400001 O
  15.2198975473199987   16.0201965242699984    1.7929530122400001 O
  15.1545990873599994   14.1959097506700012    3.8233932328800004 O
  13.2251934583799997   18.3392069596200002    1.6651020578400002 O
