Mg12 V24 O60
1.0
  17.6196599999999997    0.0000000000000000    0.0000000000000000
   0.0000000000000000   21.5331299999999999    0.0000000000000000
   0.0000000000000000    0.0000000000000000   23.2034400000000005
Mg V O
12 24 60
direct
   3.4706149088400000    2.4412970806200001   22.9536085615200030 Mg
  12.2720050916999988    1.6068021606000000   22.9607088141600002 Mg
   7.9726318551000004    5.4295571963700002    0.6619477363200000 Mg
  16.5756951450000010    5.5180368275399996    0.2634054508800000 Mg
   3.5756280824400002   12.4970103930600001    0.5216133312000000 Mg
  12.6458942769000000   12.6955027854000004    0.5206619901600000 Mg
   8.1381509411399993   16.3726938623699994   22.8500980156800004 Mg
  16.7605077587399975   15.6465105862499989   23.1938105724000003 Mg
   0.7861187505600000    0.0163651788000000    6.1752707078399993 Mg
   0.7225117779600000    3.3059814488999999    5.7105986183999997 Mg
   5.3366073814799995    3.5499733449300002    5.8641589843200004 Mg
   5.1249247862400003    0.1355510533500000    6.0480462463200011 Mg
   1.5753561809400001    3.6641420001900000    1.8595236816000000 V
   6.3253346023799999   21.5104986803699987    1.8886439987999999 V
   6.0232983906599999    3.6442238549399999    1.7423695130400001 V
  10.5317993718000000    3.7163383073099996    1.8320740120800001 V
  14.5819953766799983    0.0432169919100000    1.5482263305600001 V
  14.7739968117000000    3.4716358179900002    1.5646543660800001 V
   1.8205337498400000    7.1895029775299992    1.7568484596000002 V
   5.9430056000399993    7.3683571553100000    1.9081812952800001 V
  10.6545026840399988    7.1788225450500001    1.4690097864000002 V
  14.5298059437599996    7.3235251786499997    1.7368006874400002 V
   1.6681589301599999   10.7582101455599997    1.6857531194399999 V
   6.2958745308599999   10.7556907693500001    1.8688978713600002 V
  10.6934949916199997   10.9383993773999997    1.8341855251199999 V
  15.3991071091799991   10.7748983213100011    1.8448127006399999 V
   1.6450771755600000   14.4844967589299998    1.6510175697600000 V
   6.1816638947399998   14.3510990185799994    2.0430164851199999 V
  10.9599923491200002   14.3420981702399999    1.8870661648800000 V
  14.9763938461200006   14.2630931162700012    1.6575377363999999 V
   1.6352982642600000   21.3976004797799995    1.9121954904000000 V
   1.5934339521000001   18.1276008911099993    1.6675384190400000 V
   6.3989319222000001   18.0782038908899985    1.8453695832000001 V
  10.2620952361800004    0.0874460409300000    1.7781260140800002 V
  10.5178974600600004   18.1454949221399993    1.6081608160799998 V
  14.7011923765799999   17.9072954380800020    1.6945472232000001 V
  -0.0001585769400000    4.0204291691700007    1.5136764084000001 O
   2.0759131018799999    0.0954132990300000    3.7215301312800002 O
   1.7987029910999999    3.5950206528899997    3.7343152267200002 O
   2.3338473046199999    1.8486407436299999    1.8735153559200000 O
   2.4581363862600001   -0.0482126780700000   23.2442084440800016 O
   4.8031721749799994   21.2997970033200019    1.5948188380800001 O
   4.6512730861199998    2.7961199967599999    1.3825305655200000 O
   6.7580734519799996    1.8164056480199999    1.7199781934400000 O
   6.6977437361399996    0.1505165787000000    3.6994404564000001 O
   6.4235642068800001    3.6256192306199999    3.7858732704000002 O
   9.0434314522800001    4.2941798508600000    1.9165577371200002 O
  10.9275016960799984    0.3326437922400000    3.5531891740799999 O
  10.7865972750600001    3.7474106138999996    3.9119143564800001 O
  11.3621082296400004    1.8785287280699998    1.8124439018400000 O
  11.0079002046599985   -0.0275624064000000    0.0117177372000000 O
  13.1475083774399994    0.1468559466000000    0.8846775568800000 O
  13.1884917066000007    3.5519759260199999    0.9179512898400000 O
  15.2490933239399986    1.8121851545399998    1.6910667072000001 O
  15.0371992927800004    0.0286605960300000    3.9370900888799998 O
  15.3898920269999984    3.5173506529799998    3.5392671100799999 O
   0.1936400634000000    6.8727506352299992    1.4803562685599998 O
   2.9258150216400001    7.1406012393000005    3.5102628100800000 O
   2.4747164863199997    5.2963317210599996    1.9945444989599999 O
   4.4754112596599995    8.0100013630499998    1.3769617399200000 O
   6.3882544082399999    5.5738291673699996    2.1664355824800001 O
   6.3966942253800001    7.1773367590800001    3.8530936360800001 O
   6.6061567434599997    7.1209414916100000    0.0844141147200000 O
   8.9357577100200007    7.0152138233099999    1.5426110980800001 O
  10.8166035560400005    7.2336674271600003    3.6142606281600003 O
  11.3405946247799996    5.3509182056100002    1.9663291159200000 O
  12.6877938283800002    7.6139425029600005    1.3047526346400000 O
  15.2078985588600002    5.5922615266500006    1.9958438915999999 O
  14.6924001662400006    7.3088611171200002    3.8709602848800002 O
  15.3335972132999991    7.4668281588000003   23.1784963019999992 O
   2.3050920195000000    9.0490825511999997    1.7331809508000000 O
   2.7534418878599998   10.7382920003100004    0.1889456119200000 O
   2.2529554455600000   10.8317027182500016    3.7530171993599999 O
   2.3762754459000002   12.7332934285500006    2.1477568132800000 O
   7.0088716924199996    8.9608397844600010    2.3598362548800003 O
   4.7827686086999996   11.0947083680700000    1.4941623153600001 O
   6.7452639591599999   12.5765107090199990    2.2119143248799999 O
   6.4917699107400004   10.9422968739299993    3.9569290300800000 O
   9.1219446572400003   11.2902937878599996    1.2270211106400000 O
  11.0194939409400003    9.1431392630400001    1.9832444236800002 O
  11.2489019141400011   11.0823914177099994   23.1642957967200012 O
  10.6194924196200002   10.7194935778199998    3.9576715401599998 O
  11.5903004462999988   12.5876002709700003    2.2648645749600003 O
  17.5900942105200002   10.2550024305900003    1.7136436543200000 O
  15.6040942336199997    8.7578900342099999    2.1452972486399999 O
  13.7942027584199991   11.1222923075999987    1.4529994127999999 O
  15.6706084501199996   12.5897105177100013    1.9314311421599999 O
  15.3377025940799996   10.6829949224699998    3.8339275946400000 O
   0.1137525249600000   14.4965983779900007    1.2174148864800001 O
   2.0630859893999998   14.4555992984700001    3.6600410152799996 O
   2.0757016659600001   16.2018069426899984    1.8448823109599999 O
   4.6551670309800004   14.8582042300799984    1.8892240848000001 O
   7.0054358587200003   16.2428060222100008    1.8870429614399999 O
   6.8435640422999997   14.4992038867200019    3.8696608922400002 O
   9.2350276351199998   14.0838944084100000    1.9618044451200001 O
  11.2039013024999985   14.4431962155899996    3.9957019783200001 O
