Mg12 V24 O60
1.0
  17.6196599999999997    0.0000000000000000    0.0000000000000000
   0.0000000000000000   21.5331299999999999    0.0000000000000000
   0.0000000000000000    0.0000000000000000   23.2034400000000005
Mg V O
12 24 60
direct
   8.3142946821599999    2.1755351901599997   22.9282007947199986 Mg
  12.1990949386200001    1.6308116005500000    0.3905603020800000 Mg
   3.3966299565000000    5.6235491645400000    0.3645260424000000 Mg
   8.0041358071799991    5.4601557741000004   23.2662053051999997 Mg
  12.3494082580799986    5.4747552362399992    0.0431583984000000 Mg
   3.3898463874000000    8.8889837296499987   23.0041920607200012 Mg
   7.5861093736799994    8.7603663441600013   22.9944002090399984 Mg
  12.6868071274199998   13.0975909218900011   23.0057002843199996 Mg
  12.4123985425799983    8.9560594295999998   22.9550007679200014 Mg
   3.9314218768200000   16.1484047802900008    0.4758793509600000 Mg
  12.4653984798599993   16.1950024736099998   22.8332059113600003 Mg
   3.5104353404399999   19.9858023444600015   22.5545093935200001 Mg
   1.4791528373399998    3.4490260314900003    2.0823463159200002 V
   6.3405403689600002    3.9097488809700001    1.9089934156799999 V
  10.5159064384800001    3.8306361613499997    1.7688910449599999 V
  14.9351990810399986    3.6375055183799998    1.8304033644000000 V
  14.4086003026199982    0.0051679512000000    2.0299297449600000 V
   1.3045948657199999    7.3285639310699997    1.9531263585600001 V
   5.7790546637399993    7.2231592597200001    1.8263427624000002 V
  10.5772052356200010    7.3613588880599998    1.8331645737600002 V
  14.9985065194199993    7.2207260160299995    1.8529571080800000 V
   1.4413939059600001   10.5790975702200001    1.6898833317600002 V
   5.9490139041000001   10.9812072398399998    1.6749635198400001 V
  10.7622997639199998   10.9500918669899985    2.0077240528800000 V
  15.3464067061199998   10.5624093944700004    1.4176141668000000 V
   1.3365569289600001   14.4079895480400015    1.7116017515999999 V
   6.2969669497799998   14.1666031607399994    1.7092350007200001 V
  10.5806058299999997   14.3371024840799990    1.7899597684800002 V
  11.4027920245800001   16.1290034301600009    3.8984099543999999 V
  15.2373057713999991   14.2798028251500018    1.6495325496000000 V
   1.9865638060199999   21.4977941336699985    1.8802211500800001 V
   1.9484172421199999   18.1650900704400016    1.7824650573600000 V
   6.3390426978600001    0.3197023811100000    1.7197229556000000 V
   6.4522313937000000   17.8159088343599983    1.6469569677600000 V
  10.4668004460600006   -0.0160852481100000    1.9135180864800001 V
  10.3464934075799988   17.9111068020899999    1.6706708834399999 V
  17.5771966193999987    2.9740267168199996    1.8796178606400000 O
   2.1202617860999999    1.7188175028600001    2.3983307618400000 O
   4.7406400016400001    4.0990681599299998    2.1125339913599999 O
   2.3970490250399998   21.5882978790600006   23.0848008112800009 O
   6.9914810879999996    1.9461642894000000    2.2290848704799999 O
   6.7865820618599999    3.7300979773799998    4.2863482677600002 O
   8.7718067737199998    0.1567181201400000    1.7343643262400001 O
   6.8121658081799996    3.6693745507800002    0.1612639080000000 O
   8.8218113688000006    4.0386031308900003    1.4320002996000001 O
  10.7337030557399995    3.9210322410900003    3.7475179840800004 O
  11.0428047511199985    1.8633478714200000    1.9992547972800001 O
  13.2883951787999983    3.6071653382100002    1.5905726085600000 O
  12.8251919370599996    0.0549956140200000    1.6876093946400001 O
  15.2684044712999984    1.8009448606800000    2.3609500199999998 O
  15.6296955995999998    3.5928027404999998    0.0534607257600000 O
  15.2515953156599995   21.4578071112599993    0.4045519764000000 O
  15.5885008345199996    3.5648312046299999    3.6512933184000000 O
   1.8264891949199999    5.4342298855799998    1.8637699111200001 O
   4.1270529617999996    7.0994944941300000    1.4619559406400002 O
   2.4902217871200003    8.9259130475999999    2.1318392534399999 O
   7.0812003967199999    5.6918737860299995    2.1873418819200001 O
   6.3938750797799999    7.4368540418400002    3.8314912334400000 O
   6.4681595663399998    6.7529402999100006    0.1500334430400000 O
   8.9257145038200001    7.5130813220399997    1.5114256747200001 O
  11.3176009684800007    5.5763700767100000    1.9187852673600001 O
  13.3432980393599987    6.9795980262899997    1.5856534792799999 O
  11.3447000055600000    7.2822892346999994   -0.0064041494400000 O
  17.4421066861800007    6.7702960026900003    1.5464396656799999 O
  15.3510935356800005    5.4761979559500000    2.1724684768800002 O
  15.5928000315599995    7.1500973496299993   23.1794012361600004 O
   2.0463649320599999   10.7730895383900016    3.6135181180800005 O
   1.9232916069600001   12.4798054221900010    1.9211984251200001 O
  17.6005955278799995    9.8266869417600002    1.2913874532000000 O
   2.3120165458800002   10.7098898018399993    0.1860683853600000 O
   6.2765986228199999    8.9574160167899990    1.6613198971199998 O
   4.7040439678200006   11.6865033798600013    0.8471575944000000 O
   7.0036915123799997   12.6000033538500009    2.1761346204000001 O
   6.5142349772399992   10.6568967689100003    3.5358097975199998 O
   9.2058142388400004   10.6826073261300003    2.1214209088799998 O
  11.4911017604999994    9.1266664185900002    2.2551655370399999 O
  11.5645052640599992   12.7675957046399997    2.2293865151999999 O
  13.7225964601800001   10.1427071576400003    0.9823176323999999 O
  11.3627072980800001   10.8003935472299997    3.9016584360000000 O
  11.3682046319999994   10.9970986897799996    0.0929993875200000 O
  15.3504063689399999    8.8359260973300007    2.4212789639999999 O
  15.5242947934799993   12.3747022146600010    2.1109097505599999 O
  17.2790014935599991   14.0784034602600006    1.3967310708000000 O
   1.9290356161200000   16.2080946166499977    2.0811397370400000 O
   2.1750060697199998   14.5079894037599999    0.2674196460000000 O
   1.9082267976599998   14.3259052564800005    3.5878551134400003 O
   4.5791205784199995   14.1274989966600018    1.5328888567199999 O
   7.0045020167399992   15.9409976721299991    1.5324479913600002 O
   9.0082626109199992   14.0720942531700004    1.4416993375200000 O
  10.7612073450000008   16.1937966183299977    2.1824923629600002 O
  11.2092929184599992   14.6675929633200006    0.0255237840000000 O
  10.8928966838400001   14.2605091406700009    3.8122323782400001 O
  13.6066062384000013   14.0290064600399997    1.3315526078400000 O
  15.3578947244399995   16.2105063272099983    1.9225210211999999 O
  15.6940073586000004   14.4173995258499996    3.6507596392800004 O
  13.3126926899399987   18.7044088444200014    0.9971214271200000 O
