Mg12 V24 O60
1.0
  17.6196599999999997    0.0000000000000000    0.0000000000000000
   0.0000000000000000   21.5331299999999999    0.0000000000000000
   0.0000000000000000    0.0000000000000000   23.2034400000000005
Mg V O
12 24 60
direct
   3.6671622161399999    1.9828782760499999    0.6260056077600000 Mg
  12.2412059260199992    1.9708843226399999   23.1297922814400003 Mg
   7.8737150838600005    5.4498198716999999    0.4467822372000000 Mg
  16.5450016972800000    5.6289755132999995    0.5114966313600000 Mg
   3.7009919633400004   12.3374068334999993    0.1006101158400000 Mg
  12.1155072715800003   12.5379018069299999   22.6718027827200004 Mg
   8.1484055832600006   16.2622073723399971    0.2614795653600000 Mg
  16.7493016549799982   16.1198087836500008   23.0177892765599985 Mg
   0.7637946413400000   21.4494953230800007    5.1827899687199999 Mg
   0.8470299151799999    3.1810677617700001    5.6293865784000001 Mg
   5.2128468896399998    3.3167480138999998    5.8929776567999994 Mg
   5.5296483764400000    0.0007751926800000    5.6767215960000001 Mg
   1.6897782529800001    3.8242623548700001    1.9298533082400000 V
   6.0379227084600000    0.1333331409600000    2.0080721044800001 V
   6.1147444260599997    3.7613856152700000    1.7286330765600000 V
  10.4623074327600012    3.8131727929199997    1.5378543928800001 V
  14.6127064440599987    0.2954991429900000    1.7040374301600001 V
  14.8850006696999984    3.4758993777300002    1.8985750711200002 V
   1.8278811480599999    7.2215658081000003    2.0622985437599999 V
   6.0010447600800001    7.3912899387600000    1.9015915183200001 V
  10.7695062048600008    7.3371125836799997    1.7800054927200002 V
  14.4472049776800002    7.3166561101799994    1.6261434820800003 V
   1.7113447168200000   10.7404022470499996    1.9377656812800002 V
   6.2893552566600004   11.0059057399500002    2.0143370332799999 V
  10.2031046144999991   11.0053028123099992    2.2180632364799999 V
  14.8598045559000003   10.8939980633399998    1.6344967204800001 V
   1.6149651766199999   14.3661937427099993    1.7630901849600000 V
   6.3092126134799997   14.6419039392299997    1.7740422086399998 V
  10.5816982489200004   14.4433900137600002    1.7839268740800003 V
  14.8167949658399998   14.4467061157799996    1.7445738398400001 V
   1.4537629072800000    0.1622736676800000    1.6500198218400000 V
   1.6930026507600000   17.9361067660200000    1.7793093895200001 V
   6.3377212233600000   18.2255981657399992    1.9259783337599998 V
  10.5957939769199996    0.1454347600200000    1.6925285239199999 V
  10.7633921828400005   17.9516106196200020    1.8574121685600000 V
  14.9881990183199996   17.8932989035799999    1.7024131893600001 V
   0.0519251380200000    4.3086931804799997    1.7936491154399998 O
   1.8985183649999999    0.1809644245200000    3.6372552372000002 O
   2.1760280100000000    3.5472601705500000    3.6560268201600001 O
   2.1707068726799998    1.9424605910399999    1.9107336736800000 O
   2.4761612984399997    0.0259043553900000    0.1258554585600000 O
   4.4271333912599999    0.4644265478400000    1.5810359947200001 O
   4.4786356574399999    3.5672859814500000    1.3630164724800000 O
   6.7956385671000001    1.7936881958699999    1.7990323135200001 O
   6.6624163178400000    0.0933676516800000    3.9666744748800000 O
   6.6619934459999994    3.6654555211199997    3.5033017780800000 O
   8.8917966583199988    4.0004679576599997    0.9884201371200000 O
  10.5424945054200006    0.3833543133900000    3.6760513888800004 O
  10.7993010499200004    3.7348783322399997    3.5352761184000001 O
  10.9966060026000001    2.0270642588099999    1.7987538722400003 O
  11.0049048624600001    0.2784233709000000   22.8413039119200008 O
  12.9520006300799988    0.4647710779200000    1.3744093615200002 O
  13.2400996907399993    3.3034405395599999    1.7536695883200002 O
  15.7787931625199995    1.7005358754900000    1.9055361031200000 O
  15.0213944577599996    0.1986431242500000    3.6629646487200000 O
  15.3486972619199999    3.6915536746800002    3.8145527222399997 O
   0.1827687331800000    7.1001189549000001    1.5242803804800000 O
   2.2531492618200000    7.0520570087400003    4.0513206240000006 O
   2.8077632996399999    5.4429938694900004    2.2442599202400002 O
   4.4277148400400002    7.5638779757099996    1.4576401007999999 O
   6.6338019900000003    5.5131703401599994    2.0482604625600001 O
   6.0845267091600004    7.2964149679799997    3.7759189946399996 O
   6.7996206102599999    7.0286504964300001    0.1372019407200000 O
   9.1241823540600002    7.2776380786199999    1.5850037829599999 O
  11.3494925530799993    7.1152136790299991    3.5982734580000000 O
  11.1177059257799993    5.3786528770500004    1.8446038696800000 O
  12.7475068561199993    7.7474048427000000    1.2299215406399999 O
  15.0675051079800006    5.3885581168499996    2.0978926207199997 O
  14.5729917304200001    7.4298342414600000    3.5951874004800000 O
  15.2515953156599995    7.0722335515499992    0.0019490889600000 O
   2.1621437179199998    9.0209387502900000    2.4215574052800002 O
   2.4956838817199998   10.8391962474899994    0.3001829032800000 O
   2.1949515248400000   10.7716898849399989    3.8907528191999998 O
   2.0486378681999997   12.5340043104000003    2.0551750876799999 O
   6.7937356438199998    9.1310807102399991    2.1801720189600000 O
   4.5175046274000001   11.4444063992700009    1.7024595962400002 O
   7.1438382880199995   12.6725054025600006    2.1268505138400000 O
   6.6434047047000000   10.8449025269400003    3.7945049500800003 O
   8.6082787092600004   10.8106002508499994    1.5351395904000000 O
  11.0760001905599985    9.2103441617700010    2.1967624785599997 O
  11.0478087345600002   11.0790968488200008    0.1653709168800000 O
  10.8438083110800001   10.7497045592100005    4.0724821612800000 O
  10.8237923773200002   12.7380953165400008    2.1408653916000002 O
   0.1853059642200000   10.2270093615899995    1.2562110381600000 O
  15.3769944358800004    8.9358182874000001    1.8218412950400000 O
  13.1856020823599991   10.9082099291399999    1.1766928492800000 O
  15.0782002415999994   12.7559893475700008    2.1548570659200004 O
  15.4364079293999996   10.8211945508100005    3.4664315119200002 O
  -0.0958157110800000   14.4144925532999988    1.6373275401600000 O
   2.3311514966400000   14.4437991432300006    3.5226998539200003 O
   2.3825832841800003   16.1543909904299987    1.8402880298400002 O
   4.6942826761800003   14.6096042442300007    1.4188903560000001 O
   6.7324368466799998   16.3622072280600008    2.0638995811199998 O
   6.5411930570400001   14.4903968365499995    3.9347697448800001 O
   9.0348859171800004   14.7882000244499991    1.6162356132000000 O
  10.9248939864000008   14.4891909812699993    3.7374012842399997 O
