Mg12 V24 O60
1.0
  17.6196599999999997    0.0000000000000000    0.0000000000000000
   0.0000000000000000   21.5331299999999999    0.0000000000000000
   0.0000000000000000    0.0000000000000000   23.2034400000000005
Mg V O
12 24 60
direct
   8.0239403050200000    1.9462934881799998    0.5591564971200000 Mg
  12.1065917236199994    1.7453463190200000    0.1231638595200000 Mg
  17.0547913200600014    1.9169222988600001    0.4875738847200000 Mg
   3.8190965443199998    5.4555692174099999   22.5626073940800005 Mg
  16.6427027119800002    5.3522747928000003   23.0541026601600016 Mg
  17.2347056683200002    9.3107316138300007   22.7454969081599998 Mg
   3.5390320486200002    8.9806287309300004    0.2902750344000000 Mg
   3.3730372317599997   12.3393017489400005    0.1197297504000000 Mg
  12.5756975514599993    9.1624114143900002   22.6802952417600032 Mg
  16.7359988116800018   12.5750895224399990    0.1719142869600000 Mg
  12.2918976878400006   12.4930052308799997   23.1510930393599992 Mg
  17.0403079595399980   16.4714017302900011    0.5987647692000001 Mg
   2.1824063269199998    3.5763298960500003    1.7292595694399999 V
   5.8251829336199998    3.7877421663900002    1.5557210416800000 V
   6.0354030970799997    0.2662356193200000    1.7222985374399999 V
  10.6745009981399992    3.4399390506300001    2.0474251387200000 V
  14.7501926510399990    3.7051410797099997    1.7672203972799998 V
   1.6751186958600000    6.9714585031500000    1.5577165375199999 V
   6.1768713472200005    7.3481160131100003    1.8989695296000000 V
  10.5655938796799997    7.0489777711499997    1.7695175378399999 V
  11.3963079897000004    5.6897204730299995    4.0952679393600002 V
  15.1030087228800003    7.1319879873000005    1.5613594776000002 V
   1.6460991158399998   10.8318965164199987    1.7874305935200001 V
   6.2624147965199999   10.7708931591300008    1.8130935981600000 V
  10.5824030353199987   10.5141105838799991    1.5521245084799999 V
  11.2731994252800014    9.1098921103200006    4.0387443595199999 V
  15.2869932125999988   10.7635072955400002    1.7557578979199999 V
   1.7715687146999999   14.4096045327899986    2.0324357164800002 V
   3.0511084239000001   16.0558984538099985    4.0358671329600000 V
   5.8977054541799996   14.4010989464400012    1.9825483204800001 V
   7.2285712329600003   16.1305968817800007    4.0422480789600002 V
  10.4940052011000002   14.1737090936400012    1.6131495556800000 V
  14.8918018584599992   14.4627052313700002    1.6477690881599998 V
   1.7796032796599999    0.0866277819900000    1.8498710505600000 V
   1.8156531040199999   17.8546900014900025    2.2523811242400003 V
   3.1904623148400000   20.2154101096500014    4.3211998346400007 V
   2.5778619759599999    1.6451526651299999    2.2365795816000000 O
   2.7587630251799999    3.8391848139600002   22.9792947695999992 O
   4.1447959594199997    3.6669843733500000    1.6178830574400000 O
   0.4897384497000000    3.3453009442799999    1.2875588856000000 O
   0.0851029578000000   21.4359940505699988    1.8424459497600001 O
   2.1171783456000002    3.6411446173499997    3.9036539318400001 O
   6.6276351089999999    2.1371631524999999    1.8367843103999999 O
   6.3195024949199992    0.3793276180800000    3.5061790046399999 O
   5.9993180333999998    3.6824236275600000    3.9470211612000003 O
   8.9661163842000011    3.3127859179800003    1.7056384675200000 O
  11.2105086749999998    1.7525814507000002    2.1215601295200002 O
  13.2033979389600002    3.3871613489999999    1.2655388210400000 O
  15.7258989431999989    2.0484897231599999    2.0002989520800001 O
  13.3206920155800006    0.2163648902400000    1.4158971122399999 O
  15.4253075436000007    3.6786768629399997   23.1535990108800007 O
   2.2774996319400000    5.4452548481399994    2.1116754640800002 O
   1.9819650747599999    7.1890938480599997    3.8214441439200004 O
   2.4378385379400003    7.2995588049600002   23.2133014619999969 O
   0.1269144109800000    6.3916143785099999    1.1807070444000001 O
   4.7208531234599995    7.7814917874900003    1.4524889371200000 O
   6.5276435384999996    5.4427354719299998    2.1430929218400001 O
   6.5849779121399994    7.4398902131700000    3.7667304324000002 O
   8.9754548040000000    6.7753993544999993    1.3929257066400000 O
  11.0505045425399988    5.3326796444999998    2.1187293098400000 O
  13.6806969086999999    6.4340346446099996    1.0309984495200000 O
   8.7104727372599999    4.9785888547799999    4.2740272411199998 O
  11.4622936164000002    7.2462858413399998   23.0666093143200008 O
  15.7288942853999991    5.3520594614999997    2.0265652461600001 O
  15.7368055127400002    7.8455313161099998   23.1419972908799991 O
   2.2522858984799998    9.0197328950099998    2.2562793021600003 O
   1.8501876376199999   10.6992955018800000    3.7718815960800001 O
   2.3903359345799999   12.6001971520199980    2.0967324487200001 O
   0.1363409290800000   11.0860951160700001    1.5504538608000000 O
   2.3632897564799999   10.6846099072200005    0.0541800324000000 O
   7.1705144532600000    8.8946900090999996    2.1173603068800002 O
   4.7234784527999993   10.1750929851600009    1.5938210901600001 O
   6.6611124630000003   12.7399040994600004    2.1583607853600002 O
   6.6859033246199999   10.7772023662199992    3.8206088200799999 O
   8.8675872454799993   10.4840934006599991    1.4981301035999999 O
  11.2965983337600004    8.9084496791699994    2.1142742493600002 O
  11.3769087440399996   12.3060976624799991    1.7743902602399999 O
  11.2243929670800000   10.7210008969199997   22.9850956296000000 O
  10.6608986206199994   10.8203978249999988    3.6585095882400003 O
  13.5875065269599986   10.9265992221600001    1.2518719948800001 O
  15.4573929444599987    9.0695174915700001    2.2214277352800003 O
  15.6416945880600000   12.8722897827000011    1.8927510076800003 O
  15.5686963366800004   10.9199024187300004    3.8633031496800001 O
   0.1692720736200000   14.4975027694499996    1.5527510013600001 O
   2.2980089161800001   16.1502996957300020    2.3226643440000001 O
   2.3805922626000000   14.3709094981800014    3.7584700077600002 O
   4.2839031751199999   14.3594969392799996    2.0842257945600000 O
   6.5838854932200004   16.1968973890500010    2.1541377592800002 O
   6.2378353708199992   14.6164948458300010    4.0352638435200001 O
   8.9224724863800002   13.9394932386299999    1.3441288723200000 O
  11.3478010657200006   16.2594941979599987    1.7633222193600002 O
  13.2729074976600003   14.1077100501900006    1.4197488832800000 O
  11.0197934751600002   14.3040060632699984    3.6669556404000003 O
  15.6320918733600003   16.3577068038900002    1.9463741575200000 O
  15.2219942868600011   14.6394922286699991    3.6028909425599998 O
  15.6207976713000001   14.3663014083600000   23.1539006556000011 O
