Mg12 V24 O60
1.0
  17.6196599999999997    0.0000000000000000    0.0000000000000000
   0.0000000000000000   21.5331299999999999    0.0000000000000000
   0.0000000000000000    0.0000000000000000   23.2034400000000005
Mg V O
12 24 60
direct
   7.8949643938199996    5.6532002845500005   22.8385891094400009 Mg
  16.4783993824799992    8.8950130060500001    0.4888964808000000 Mg
   3.3259222609200001    8.4519903894299997    0.5514297516000001 Mg
  11.9876061596400003    9.2322002887199996   22.7794899477599984 Mg
  12.0027943065600002   12.5009940221100013   22.8829076798400024 Mg
   7.5861269933399997   16.1726941509299991    0.4665283646400000 Mg
  16.8705953944200004   16.3242012536099992    0.0842052837600000 Mg
  12.3426951676199987   19.6864918374600002    0.2882795385600000 Mg
  16.9959945146399996   19.4334990930899991    0.6016884026400000 Mg
   1.2916091762999999    3.3678891976499998    5.8604928408000001 Mg
   5.0579172192600002    3.7904768738999999    6.2584086333600002 Mg
   5.2575655867199993    0.0337854809700000    5.9398486055999999 Mg
   1.7705643940799998    3.4978847034600000    1.7445506364000001 V
   6.1275010599000002    3.6386252411399997    1.7057776881600000 V
  10.5979083361199997    3.5841033559800004    1.8706613327999999 V
  10.3873005401400000    0.0988370667000000    1.7556882876000000 V
  14.7584034125999999    3.4474971792600000    1.9347260306400000 V
   1.1009115961200000    7.3819230272099992    1.8386173821600000 V
   5.9740866802800001    6.9572897036100008    1.8142537701599999 V
  10.7304081793200012    7.2728361906300005    1.5524029497600003 V
  14.5659086270999989    7.1139862906199998    1.9782788875200001 V
   1.5664934919600000   10.7787096853200008    1.7843677394399999 V
   6.1827034546799995   10.6029993445200006    1.6215492009600001 V
   7.0344906780600001   12.2006068586099996    4.0934580710399997 V
  10.5026035951799983   11.1399064079399999    1.7231802681599999 V
  14.5594950708599988   10.9267068878100009    1.5752583381600000 V
   1.9488401139599998   14.2776064458899992    1.6688378116800000 V
   5.6982685226400003   14.2933902301800000    2.0822535021599999 V
  10.3513035747599993   14.4600997226400008    1.8326540980799999 V
  11.4672975998399984   16.0925909073299991    4.0192070630400005 V
  14.9412954833999994   14.5063098196200002    1.7599113136800000 V
   1.9779654119399999   21.3986986694099990    1.6146345758400000 V
   1.7916727467600000   17.7580062477900000    1.8199386129600001 V
   5.9839184505599992   21.4364031800399992    1.6991183008800002 V
   5.9169108835799991   18.0192892472100006    1.7108592415200001 V
  10.4921022778200008   17.7766970046300017    1.6873077499200002 V
   2.6032519060199997    1.8933865877699998    2.0987743514400004 O
   4.4252657073000004    3.7930393163699998    1.5170641106400000 O
   0.2952350229600000    2.8653274765799996    1.1518187616000000 O
   6.5838326342400002    1.7108287116299998    1.8046011391199999 O
   8.9835774672599999    3.3265886543100001    1.6816693140000001 O
  11.0709081088199994    1.7638002114300000    2.1739070901599997 O
  13.1798052142200000    3.2141641825800003    1.4729311677599999 O
  11.2686006940199999    0.0479112142500000    0.0122050094400000 O
  10.9862985015000003    3.5467433754299997    3.7846434880800000 O
  15.4494993367799989    1.6661259337500001    2.1824459560800000 O
  15.4875049434000012    3.9677160669300000    0.2774203286400000 O
  15.3729066747599994   21.3656022485999983    3.7611848102400001 O
  15.9889076080199999   21.4095083006700015    0.1825646659200000 O
   2.0706976825200001    5.6277696580199992    2.1135781461600001 O
   1.6919983301400001    7.2979868864700004    3.8267113248000002 O
   1.8470337184800001    6.8885344195200000    0.0461980490400000 O
   4.3150899733200001    7.0807606710299993    1.1686644590400002 O
   7.0174172275200002    5.4647638639200000    1.8819614080800000 O
   6.3598338966600005    7.1054807042700006    3.7835993332800002 O
   9.0958323211199996    6.8889004827300004    1.0178885059200000 O
  11.0928974445000001    5.5450178394299998    2.1590336851200003 O
  12.8784914085600004    6.8893096121999999    1.5552801763200002 O
  17.0895020502599984    7.1433574799399997    1.6636402411200000 O
  15.0348030190199999    5.3655392008799998    2.3865666177600002 O
  15.0817065539400001    7.4307601660499998    0.2331713685600000 O
   2.0634736219200001    8.9711972199899996    1.7711649820799999 O
   1.8376424397000000   10.6568106363900004    3.5051116464000001 O
   2.2193899932599996   12.5321955274799990    1.8820542218400000 O
   4.5133640072999999   10.2528060513299994    1.4071030084800000 O
   6.7040691940799997    8.6763225377700000    1.9366519161600000 O
   6.5384443900799996   12.4652059600499996    2.1989900088000001 O
   6.3136175284799991   10.4972070768299997    3.6058377794400003 O
   8.8501966410600001   11.5141091410799987    1.5599904746400000 O
   8.6331576691799992   11.9155943499300001    4.5564827162399997 O
  10.7180039386799990    9.2168256339000010    2.0078400700799999 O
  11.3592009857399994   12.7736895804300001    1.8921941251199998 O
  10.8192993640200008   10.9172969099999992    3.8812626122400000 O
  13.0208054023800006   10.7624952384300006    1.0085143161600001 O
  17.5419044404199980   10.4702906643299993    1.3698846907200000 O
  15.1415957782799993    9.0973167624000002    2.0591428759200001 O
  15.4457992081800004   12.5958043934999999    1.7081444390400000 O
  15.5155025831400000   10.7731972040399988    3.6163489377599998 O
  15.4280914498800001   10.8146915455499997   23.1588893951999992 O
   0.3042386692200000   14.3107028666999998    1.4387757040800000 O
   2.3242798292400000   16.0872937573500003    2.0153347812000000 O
   2.5807692198599996   14.2296952316399992    3.6728261107200004 O
   4.1991878498400004   14.3484935098499999    1.3767297055199998 O
   6.3026933392800002   16.0760965297500000    2.0760813871199999 O
   6.7437310487400000   14.1113922154199987    3.5748843904800003 O
   8.6285941772400001   14.6818048291199990    1.5865584134400001 O
  11.2523025085199997   16.1588914145999993    2.0582843486400000 O
  13.3860961935000002   15.1249997107799992    1.4976892382400002 O
  10.8105071536799997   14.3630068394699997    3.6947533615200006 O
  15.7557995062200007   16.0201103917500021    2.1425360392799999 O
  15.3088063516799995   14.1004103191199999    3.6885348395999999 O
  15.4965085896599994   14.6110900301999997   23.1336904593600003 O
   0.4570539804000000   20.9938973585399999    1.4185423044000001 O
   0.1201660812000000   17.8687942016400001    1.6120589939999999 O
   2.6129250993599999   19.5395066920799998    1.7126227029600001 O
   2.0940261123599999   17.8693971292799993    3.8211192957600000 O
