Mg12 V24 O60
1.0
  17.6196599999999997    0.0000000000000000    0.0000000000000000
   0.0000000000000000   21.5331299999999999    0.0000000000000000
   0.0000000000000000    0.0000000000000000   23.2034400000000005
Mg V O
12 24 60
direct
   3.2413478929199999    1.9421806603500000    0.1566232200000000 Mg
  12.7210068874799997    2.0862373000500001    0.5269037155200000 Mg
   3.5256763463400000    5.3648932069799997    0.1662758510400000 Mg
   7.4878445298599994    5.0844887881199998   23.0344957533600017 Mg
  16.7700047554799987    5.6842295248800001   23.1648062723999999 Mg
   3.2473561969799998    8.9795090081700000    0.0246884601600000 Mg
  12.2470027941600001   12.5360068914900005   22.8900079324799997 Mg
  12.3428008855800009    8.5745138991300003   23.0508077716800024 Mg
   3.6885877226999999   16.5130037374499992   22.7789098617600025 Mg
  16.9130059160399995   16.4754930249900013   22.9034891311200006 Mg
   3.1614251151600001   19.9367068080599985   22.6662107536800015 Mg
   8.1933885752400002   19.8609101904600003    0.1422834940800000 Mg
   1.6626439765800001    3.7161445091400003    1.8231638911200001 V
   2.2658001776999996    1.6143172229699998    4.0231516478400007 V
   5.8585369500000004    3.4389269935200004    1.8800123191200000 V
   6.0008333241599994    0.0238587080400000    1.6681881153600000 V
  10.4604926077799991    3.8007266437800000    1.5671835410400001 V
  15.1002071969399996    3.5661447255600001    1.6879806496800003 V
   1.7190973672200001    7.3761952146300001    1.8364594622399999 V
   5.8258877200199999    7.1757863737199994    1.9383457672800000 V
  10.4499031921199990    7.1728578680400004    1.7454323671200001 V
  15.0203020388399988    7.1941326004799997    1.7696799619200001 V
   1.4057493337800000   10.8441919336499986    1.9543793443199999 V
   5.8074751753199996   11.1402078717600013    1.8818221874400003 V
   7.0023171789000003    9.0967784341500000    3.8645097285600003 V
  10.6108940255399986   10.6477021224000001    1.5198021165600000 V
  11.4795080242199994   12.3149047126499998    4.0888637899200004 V
  14.9055980522400002   10.4966902817100003    1.6641507168000003 V
   1.2745533454200000   14.3350999029899988    1.9252126202400002 V
   5.5922157890999991   14.5086999970499999    1.9472790916800000 V
   7.4828229267599999   16.2846018275400013    3.8266185110400004 V
  10.6065067301999996   14.2821930025799997    1.7596560758399999 V
  14.9711079481200002   14.5903105597500016    1.7512100236799999 V
   1.3962875763600000   21.5260025339700007    1.5979048955999999 V
   1.5298622188200000   17.8794100347300002    1.7907254819999998 V
   6.2203919074199998   17.9794960229700003    1.8552078417600000 V
   1.8658162760399999    1.7453678521500000    2.0566601078400000 O
   1.4947286167800000   21.5218035736199980    3.9040019834400002 O
   2.3696504537399998    3.6123117562799996   -0.0194908896000000 O
   4.3839828439200001    3.6668767076999997    1.1266894360800002 O
   6.6893215386599998    1.8643168622700002    2.1643704763200002 O
   8.8239257280000007   -0.0039620959200000    1.2276011966400000 O
   4.4788470933599998    0.4755376429200000    1.3776810465600000 O
   6.1291220686200001   21.5671092791400021    3.7920685888799999 O
   8.8310969296199993    3.7472814151200002    1.3987961769599999 O
  11.0995048169999997    1.9779902555400000    2.0975909759999998 O
  11.2403916183600003    3.4408003758299999   23.1084915235200015 O
   0.1656776629800000    3.8444604308099999    1.1434191163200000 O
  13.4560991026799996    3.5145513460800002    1.5272504208000002 O
  15.7926069759600001    1.7990499452399999    1.8448591075200000 O
   2.2537835695799999    5.5290617901000001    2.3028718096800000 O
   4.2995670528599996    7.0678192599000003    1.3361236855200000 O
   1.8573940785599998    7.1876511283499998    3.9627995004000001 O
   2.3150823667200000    7.1487192293099993   23.1486102712799990 O
   6.3769073472000004    5.3314307229600004    2.2084802157599999 O
   6.5005092621000005    7.3832580812700002    3.8641384735199997 O
   8.8015135204800004    7.3556526086099998    1.5129106948800000 O
  11.1571034855399986    5.4583685243100000    1.6683969463199999 O
  10.7899978694400005    6.9887711396699999    3.6770955436800001 O
  13.4180053977600000    7.2007432713900004    1.3698150804000000 O
   0.2370725253000000    7.5256351368300001    1.1280584390399999 O
  16.0450086054599979    5.5250566279199997    1.9807384521600000 O
  15.4123923328199997    7.2665700497999994    3.9391783984800002 O
   2.3526651015000000    9.0461971117799997    1.8804299810400000 O
   1.9650678208200001   10.7079087538800000    3.8250406771200001 O
   2.2912253470799997   12.5180913273299996    2.2997393452800003 O
  17.5138010827200006   10.7498983573799993    1.4281021216800001 O
   6.3455091130800003    8.9890051184999997    1.9653313680000000 O
   4.2895943253000004   10.6542912601800008    1.1433959128800000 O
   6.5367881420399998   12.9289003814700010    2.2130977003200001 O
   6.5806787151000004   10.9814010380100004    3.5669952208800000 O
   8.9665921150200010   10.4096964365100000    1.1522364235200000 O
  11.1113980874999996    8.8783248303000004    1.7325776613600001 O
  11.6058938453999989   12.6012092091299994    2.2579499498400000 O
  11.1207012679799995   10.6929001622700000   22.9240937858400002 O
  13.3625034687599999   10.1620008421199994    1.1737924192800000 O
  15.4413942931799983    8.8250949329399990    2.2662103744800000 O
  15.1076074541400001   12.4667994116699994    1.9130076108000000 O
  15.6312989886599993   10.7003936915099995   23.1909101423999999 O
  17.2908066657599981   13.6981929838499994    2.2236320620800001 O
   1.9407174507000000   16.0516994934599992    1.7882427139199999 O
   1.8366557387400000   13.8374908018199996    0.1135112284800000 O
   2.0064740218199999   14.4048026448000002    3.7842722330400003 O
   4.0857348591000004   13.9410005577299998    1.6063509477600000 O
   7.0523570133000000   16.2538955841599986    1.8476203168800001 O
   6.4324797548400001   14.7467056829399983    3.7382598115200003 O
   9.1373970990600011   13.6110053404800002    1.3977056152800000 O
  11.0311052968799999   16.2357000893100007    1.9847990541600002 O
  11.2153012225200008   14.4313960603500000   23.1865014888000012 O
  13.5999988659000000   15.3557056655999986    1.3100894258400000 O
  15.7476063643199993   16.3926981401399985    2.2954467088800001 O
  15.1181968697999984   14.3670981341700017    3.9194090676000002 O
  17.5838920901999991   17.9033979415500006    1.4660629495200002 O
   2.1817543994999999   19.9636016874299997    1.8239992149599999 O
  17.4023038742400011   20.9421963134100011    1.0581928812000001 O
   2.3071182804000001   18.1589961946499976    0.1258554585600000 O
