Mg12 V24 O60
1.0
  17.6196599999999997    0.0000000000000000    0.0000000000000000
   0.0000000000000000   21.5331299999999999    0.0000000000000000
   0.0000000000000000    0.0000000000000000   23.2034400000000005
Mg V O
12 24 60
direct
   7.9160198875200001    1.5948297403200000    0.1115621395200000 Mg
  12.2869994223600010    1.8023445141299999   22.5784089367200025 Mg
  16.7775988289400004    1.6965737795700000    0.2909943410400000 Mg
   3.6234126003600000    5.0791701050100002    0.0361277560800000 Mg
  16.9627990751999995    5.6671106865300001   22.4764066144799983 Mg
  16.7663927251800011    8.9669551933800005   22.8248062660799995 Mg
   3.5507667421800000    8.6293157149800006    0.5109397488000000 Mg
   3.3139585117800001   12.5472902516100007    0.3246393290400000 Mg
  12.2829997595400009    9.0951419162700002    0.1842585170400000 Mg
  16.4160081664199993   12.9869967662099999    0.4664123474400000 Mg
  12.4788951394200005   12.7256061011400003   22.9817079273599987 Mg
  16.2669987017999986   16.1294986921500012    0.2160936367200000 Mg
   1.5548468967000000    3.5905632949799999    1.8002388924000001 V
   6.0016790678399996    3.5342972262900001    1.8605214295200001 V
   5.6194734031199998    0.0128337454800000    1.6882358875200001 V
  10.7603968406400003    3.4687934448300002    1.9544025477600000 V
  14.8324940828999985    3.3333715902600001    1.4714925544800002 V
   1.5700526632800000    7.0308468756900000    1.8666935445600001 V
   5.9318523552599993    7.2848732102999998    1.8606142432799999 V
  10.3834946935799994    7.3285423979399997    1.9858664123999998 V
  11.9287917345599990    5.5967404176900004    4.0698601725600003 V
  15.4004990623199998    6.9702095816099998    1.8191728994400000 V
   1.3849933742999998   10.7155960812900002    1.8642571833599999 V
   6.0477016197599998   10.9845018087300001    1.9908551520000002 V
  10.2779000711999995   10.7014057486200009    1.8997352431200001 V
  11.3960965537799996    8.9196038405099998    4.1105358028800003 V
  15.0182933975999990   10.6334902566000000    1.5982993540799999 V
   1.4794876108799999   14.3869086137700002    2.1168498312000001 V
   2.8066708807199996   16.1172032749200014    3.9553511961600001 V
   6.2929849066200001   14.2726968922499999    1.8208667505600000 V
   7.0857991279799997   16.2684950463000000    4.0509029620799994 V
  10.6395083533800001   14.3198975132099999    1.7074715392800000 V
  14.3985042374400010   14.4587000691899998    2.0613704061600000 V
   1.9529983537200000   21.4390086887699987    1.7123210582400001 V
   1.7110980415800001   17.8872911603099993    1.6627121035200001 V
   2.9074377162599996   19.4946101160299996    3.9930799896000000 V
   2.2888290733199996    1.8130680128699999    2.1650201726400002 O
   2.2033737223199998    3.7408645423799998   23.1972910884000001 O
   4.3723010093400001    3.6534400345800004    1.4454350913600000 O
  17.5595945790600005    3.1045605508800000    1.6855442884800000 O
   0.3099121997400000    0.0102713030100000    1.6754971989599998 O
   1.9026061261199998    3.4151113517399998    3.7828336197600003 O
   6.5115215496000003    1.7270862247800001    2.0714871059999997 O
   5.7174915716999992   21.4530913557900007    4.0394404627200000 O
   6.6616234331399999    3.7215923910300002    3.8286140068800005 O
   9.1019992021200000    3.1172004981899999    2.0262171945600000 O
  11.5898951941199986    1.8111730974300002    2.3349157603199999 O
  13.3182957418200001    3.8057869293300000    0.8458349983200000 O
  15.4241975050199986    1.7147477412899998    1.8640947592800001 O
  13.0816989473399996   21.0566018331000002    1.2776510167200001 O
  15.5572083183600007    3.1915543960799999   22.8687999883199993 O
   2.4207122284200002    5.3272102294800003    2.0475179524800002 O
   2.1068532248400000    7.0462861299000004    3.6030301632000001 O
   2.2476519279000002    6.7601969647200004    0.1173397960800000 O
  17.6153960422800004    6.8290599144599993    1.3296499257600001 O
   4.3056105962400002    7.3635337341900007    1.7398635415199999 O
   6.6536241074999998    5.4652375927799994    1.9657258264800002 O
   6.7272919059599996    7.2988266785399993    3.5303569891200004 O
   8.8038040762800005    6.6514761913499996    1.7616747751200001 O
  11.3239969050599996    5.4122230267200004    2.2250010650400003 O
  13.7311948542600000    6.6676260388499999    1.6036593487199999 O
   8.6861752261199996    5.1136661792700000    4.5233017970400002 O
  11.0444962384800007    7.2392875740900005    0.1731208658400000 O
  15.7549009035599994    4.8844460104200005    1.9406197044000000 O
  15.5649962080799984    7.3533485637000000   22.9652102815200010 O
   2.1331769968800001    8.8770974418899993    2.1944189311200000 O
   1.7514470629800001   10.7871937385400010    3.7802812413600004 O
   2.3259184576200003   12.4784057687399983    1.9956350606400000 O
  17.4616997480999991   11.0332097487900000    1.4988726136800001 O
   2.2139102790000003   10.2503943407699989    0.2338210648800000 O
   6.3675513077400003    9.1193451543900004    1.9359326095199998 O
   4.5150554946600003   10.5365911715999996    1.4606101411200001 O
   7.0598277491400001   12.6166053970799990    2.1476872029600003 O
   6.4847396663999994   11.0559056678100003    4.0054474231199997 O
   8.6917077993599996   10.1848044267900004    1.4971091522400000 O
  11.0381003019000001    9.0897801669000007    2.1215137226400000 O
  10.9180927976400000   12.4795039583699996    2.1465502343999998 O
  11.2204990222199985   10.8124951662900006    0.2246325026400000 O
  10.7994067678799990   10.7668018644299988    3.9696677186400002 O
  13.4593058808000006    9.8816394895199995    1.6257722270400001 O
  15.6469981057199998    8.8125411181499995    1.9814113519200001 O
  14.9283978922799996   12.5512954137900010    1.7157783708000001 O
  15.4607054405400000   10.7590930038899995    3.7035242618400002 O
  17.5573921215599995   14.4616931742600006    1.4223476685600001 O
   2.3685404151599996   16.0656960279599978    1.9829427789599998 O
   2.2415379058800000   14.3206942390199998    3.7362411122400001 O
   4.6252312286400006   13.7706089000399992    1.8749771726400002 O
   6.7162443791399999   16.2020007408600009    2.0818590436799997 O
   6.4360741654800000   14.5526921816399994    3.8895926472000002 O
   9.0737196478200008   14.6861975876399988    1.2000587133600000 O
  11.3984928275400001   16.4217032662499989    1.9907623382399999 O
  12.7112984548199996   14.0678952928199994    1.9040510829600001 O
  11.0887039654200006   14.4619085055600003    3.9960036230400005 O
  15.0179938633799992   16.1692919163899980    2.1655306483199999 O
  15.0228040305599997   14.3973952480800005    3.7200219076800001 O
  14.9587037074799998   14.5984931491499985   23.1368925340800011 O
