Mg12 V24 O60
1.0
  17.6196599999999997    0.0000000000000000    0.0000000000000000
   0.0000000000000000   21.5331299999999999    0.0000000000000000
   0.0000000000000000    0.0000000000000000   23.2034400000000005
Mg V O
12 24 60
direct
   7.9513296861600002    1.9799067041100000    0.4798935460800000 Mg
  12.3106978650599981    2.1410606490299999    0.1373411613600000 Mg
  16.8347041470000001    1.6055747721900000    0.6532000394399999 Mg
   3.1139048921399999    5.6767359956399996    0.3769630862400000 Mg
  16.4952966364200009    5.3001000188100003    0.2353060850400000 Mg
  16.4459087294399993    8.4659869239300001    0.2812024893600000 Mg
   3.5517534431400000    9.2925576521100002    0.5152091817600001 Mg
   3.7654094403000000   12.5520060070799993    0.2686030214400000 Mg
  12.2227933813200007    8.8545307216499989    0.2528478856800000 Mg
  16.8837044214599992   12.4604902045800010    0.1978557328800000 Mg
  12.6172975687199997   13.0031035474499994    0.2353060850400000 Mg
  16.6840912933200016   15.9661914342299998    0.3172606351200000 Mg
   1.6918397531999998    3.4651974121200002    1.7676380592000001 V
   6.0207259202999994    3.8392924796100001    1.8738402040800000 V
   6.0214130870400000    0.1220928471000000    1.7264055463199999 V
  10.5282930594600010    3.4578761479200000    2.0007398174400000 V
  14.6460956997600000    3.4666401318299997    1.8052508354399999 V
   1.6052567439600001    7.1974271693700000    1.8467849930400000 V
   6.1830558478800004    7.3837318101300005    1.7951341356000001 V
  10.3547041691399997    7.1477933047200004    1.9742646923999998 V
  11.4548052609000006    5.4151730655300003    3.8362711420800002 V
  14.6916072815399996    7.0171087387500002    2.1138797908800000 V
   1.6523540951400000   10.7512980108300003    1.8709165706399999 V
   6.2446541792400003   10.9610091639000000    1.7604681962399999 V
  10.3576995113399999   10.9132917478199989    1.8876694543199999 V
  11.8039035844799987    9.0379499229900002    3.8291708894400003 V
  15.0838913917799999   10.4323923555300002    1.8522610048799999 V
   1.7874440283599999   14.1855092488800008    1.6749867232800000 V
   2.9918535073200001   16.0762041953999990    3.7829032300800005 V
   6.2866242093600002   14.2809010147799995    1.7935795051200001 V
   6.8503123720800003   16.3687102333199981    3.8240429292000004 V
  10.2930001198199985   14.3945098086600005    1.7822562264000001 V
  14.7634073960399999   14.2504962352200000    1.8199386129600001 V
   2.0965633433999997   21.4923893180400007    1.5469733447999998 V
   2.1230456923799998   17.9976915178199981    1.6793489699999999 V
   2.6851657053600002   19.7047088654400007    3.8946509971199998 V
   2.3745310995600000    1.7856994046400001    2.0074688150399997 O
   2.2643377459199998    3.5205590893499998    0.0894028543200000 O
   4.3733405692799998    3.9529228066199997    1.7861776077600002 O
   0.1174350339000000    3.7502099208000002    1.5781355647200002 O
   0.3887777979000000    0.1689920042400000    1.5743998108799999 O
   2.0957175997199999    3.5649819365400002    3.7633659336000003 O
   6.5156797893600000    2.0049497342999998    2.0403016826400000 O
   6.1894165451400003    0.0196812808200000    3.7180728187200001 O
   6.3578252554199999    3.9364930284300002    3.7714175272799997 O
   8.9981665457399984    3.2102020866599998    1.4996615306399999 O
  11.4212926675800013    1.7498898094500002    2.0352665361600000 O
  12.9417988469399994    3.4918554270600000    1.6465393058400000 O
  15.4605997225799996    1.7582015976300001    2.1846270794400002 O
  13.4565043548599999    0.0642117936600000    1.4152010090400000 O
  15.5513938305599986    3.4701069657599999    0.0958766140800000 O
   2.2996827838799998    5.3442214021799996    1.9633822790400000 O
   1.9743886209600001    7.0778752316100002    3.7631803060799998 O
   2.4233375577599996    7.5650407647300000    0.0872913412800000 O
   0.0406485556200000    7.1146107513899999    1.3218535699200000 O
   4.5617652133200002    7.1835813667800004    1.3775186224800000 O
   7.0347549729600001    5.4827440274699999    1.9613171728800001 O
   6.4437034782599998    7.1386201913399994    3.8074988764800000 O
   8.7911355407400009    7.4583441055800002    1.6080912057600001 O
  11.2095043543799999    5.3000784856799994    2.0000205107999998 O
  13.1173963785000005    6.9004853066700003    1.5869992788000000 O
   8.9998227937799999    5.5791263173500001    3.7274238050400004 O
  10.9328052137399983    7.2027027862200006    0.1407984739200000 O
  15.4108065634199995    5.1769735814699995    2.0818126368000001 O
  15.3448914153599993    6.8505715113300001    0.0069842354400000 O
   2.1057255665999999    9.0316191827699992    2.0403712929600002 O
   1.6675246224000000   10.8279990198899991    3.7829728404000003 O
   2.6007146749800003   12.4331000632199995    2.0836457085600002 O
   0.0121928047200000   11.2107934719000006    1.5970695717600001 O
   2.3276451843000001   11.1540967406100009    0.0692854718400000 O
   6.6047471706599996    9.1952494376400011    1.7559203220000001 O
   4.5509115027600000   10.8180937800899990    1.4131823097600000 O
   6.8676677371799997   12.6048913743599993    2.2386910946400000 O
   6.4184368858200003   10.6775039743200004    3.5544885667199999 O
   8.7569534003400005   10.7179001262000000    1.7415573926400001 O
  11.1880964674800012    8.7738245504099996    2.0374940663999999 O
  10.9258983070200006   12.6112005814499994    1.8455320072799999 O
  10.9994075285399990   11.2848028397099984    0.0505370923200000 O
  11.1968005795199996   10.7820042542099994    3.5845370215200001 O
  13.4925013202400006    9.9455928856200000    1.5841220522399999 O
  15.6527949738600007    8.6378213013299998    2.1792902882400003 O
  15.3483977276999983   12.4413903182700007    1.6832007410399998 O
  15.4619916757200002   10.5416945234100012    3.7692596073600000 O
   0.0755354824200000   14.2201991213099994    1.2761427931200000 O
   2.5792539290999996   15.9895979465400018    1.5364853899199999 O
   2.2187380658400002   14.4037905876899988    3.6867945816000001 O
   4.6041228759599999   14.1382009622700000    1.7229018268800000 O
   6.6571480395000000   16.2760962411900003    1.9222193764800000 O
   6.7960261996200000   14.3043075270899998    3.7626234235200000 O
   8.6782287594599996   14.5130066230499981    1.4261762361599999 O
  11.0995929153000006   16.0504936381800007    1.8129079706400002 O
  13.0907025935999997   14.2326022041900000    1.7795182204800000 O
  10.6790997294000007   14.2448976214199998    3.7056821817600003 O
  15.4447067892599996   16.1557045113599997    1.9871193981600002 O
  15.3956007968400002   14.2352077129199994    3.5866253311199996 O
  15.2337994590600001   14.7498925861799997   -0.0759216556800000 O
