Mg12 V24 O60
1.0
  17.6196599999999997    0.0000000000000000    0.0000000000000000
   0.0000000000000000   21.5331299999999999    0.0000000000000000
   0.0000000000000000    0.0000000000000000   23.2034400000000005
Mg V O
12 24 60
direct
   7.9150508062199991    2.3516331273000000    0.0732532600800000 Mg
  12.1885936212599990    1.6506436132800000   22.8526039871999984 Mg
  16.2406044511199994    1.8523875082500001    0.2779772112000000 Mg
   3.4630208353800001    5.3939198662200001   22.9504064867999986 Mg
  17.0643940347599994    5.2005308256900005    0.1691530776000000 Mg
  17.0051919771599991    8.7120675335700000   22.4216000891999983 Mg
   3.4653642501599999    9.1651030556399995    0.2904606619200000 Mg
   3.7852139381399996   12.4377942855600008    0.5102668490400000 Mg
  12.1920999335999998    9.3958736098499998   22.8658995583200024 Mg
  17.1302034648599992   12.7324105702199990    0.4144134384000001 Mg
  12.3059934158399997   13.1877932034600001   22.7014103721600016 Mg
  17.0138960891999993   16.4192915556899983   23.1161022518400010 Mg
   1.9345858090200001    3.6582203894400003    1.7427871749599999 V
   5.9239411279200000    3.8970874005300002    1.8444878524799999 V
   6.2443722646800000    0.2360461710600000    1.7669419559999999 V
  10.5526962885600000    3.6609335638200000    1.8033481533600000 V
  14.6083015290600002    3.6229491225000001    1.8995496155999998 V
   1.5173874995400001    7.1991498197699997    1.8682945819200001 V
   6.3540194088600002    7.3236974436899995    1.8554630796000000 V
  10.3884986770200012    7.3793605847399997    1.6606934042399999 V
  11.5364019063600001    5.4798585880499999    3.8501700026400001 V
  14.9837060050199984    7.0417857057299997    1.5128410845599998 V
   1.6911349668000000   10.7669095300799995    1.9637303306400000 V
   6.4055921536799998   10.7856002869199994    1.7652945117599999 V
  10.4863935079800008   11.0986058645999996    1.6475834606399999 V
  11.4576948851400005    9.1636603359300004    3.7632267129599999 V
  14.9522020529399988   10.6519010827499994    1.4526513611999998 V
   2.1084742335600000   14.4024985998900004    1.7481239661600001 V
   3.0070240345800001   16.2650066792399990    3.8547410803200002 V
   6.3904040067599999   14.2217925729299992    1.9019859768000000 V
   7.1164749560399994   16.2010963494000002    3.8970409514399997 V
  10.4633998516800002   14.4237087329400016    1.7339002574400000 V
  14.7005052098399993   14.2585926921000006    1.7588903623199998 V
   1.5468828103799999   21.4690904713799995    1.4080079426400001 V
   1.8742560931799999   17.9038932035400009    1.9608763075200000 V
   2.9352943987200000   19.9333907060400009    3.8807289331200003 V
   2.1516776398799999    1.7320173115500002    1.8803603707200001 O
   2.6893063254599996    3.3695041824000000   23.2226988552000044 O
   4.2938935223400003    4.2128061525899998    1.4632321298400002 O
   0.1789628866200000    3.4470880497900001    1.5820801495199999 O
  17.6070971824199987   21.0393968622299994    1.1289169663200000 O
   2.4862926029400003    3.3688797216299999    3.6633591071999998 O
   6.7776841335600002    2.0325982732200001    2.0676585383999999 O
   6.7128614044199999    0.2781865064700000    4.0324562272800000 O
   6.4335545540999997    3.6376993165500000    3.8731182048000004 O
   9.0010033109999998    3.4395945205499996    1.3939698614400000 O
  11.2480033114799998    1.6618193077499999    1.9911335932800001 O
  13.0519041022800000    4.1248002502799999    1.4042953922399999 O
  14.8216051330199985    1.7698079547000001    1.7913287714400001 O
  12.9234039219000003   21.0996896262300027    1.4449710225600001 O
  15.4086041059199985    3.9169194132600000    0.3016911268800000 O
   2.1617384657400001    5.3435108088900005    2.3982379480800002 O
   1.9367354075400001    7.0902783144899999    3.9740995756800004 O
   2.3257070217000000    7.1488914943499999    0.2192725080000000 O
  17.5450935988799976    7.2910747517400001    1.5594335920800002 O
   4.7794384929599998    7.6070949676199993    1.9192261327200000 O
   6.9976303493399996    5.4114047677799997    2.0803044131999999 O
   6.6683541432599993    7.3257000247799997    3.8613540607200001 O
   8.7568829217000008    7.2176467784399998    1.1965781973600000 O
  11.0182958040600010    5.5472572849499997    1.9543561408799999 O
  13.3746962734799997    6.7277034715499999    1.0249191482400000 O
   8.8402767724799993    5.5647637196400002    4.5490112085600005 O
  11.1506018309999995    7.5512595615300002   23.1475893199199980 O
  15.6564070041600001    5.2825289847299999    2.2260220164000004 O
  15.7395013207199987    7.1866390712400001   23.0073013216800000 O
   2.3325258301199998    8.8574592273300006    2.2773480256799998 O
   1.9777187367000000   10.8596096547300007    3.9134457835200003 O
   2.6739243622800002   12.5090043464699985    2.0866389523200000 O
   0.0393975597600000   10.7907036387300010    1.5414509260800002 O
   2.3420756858399998   10.9177060394699996    0.2345867784000000 O
   7.0416266403599996    9.1168257781799991    2.0825319434399998 O
   4.7859049081800000   10.2856010083199987    1.3694438253600001 O
   7.1047578821400004   12.4433067668400010    2.0945513253599999 O
   6.4094332395599993   10.8764916286500011    3.8067563664000001 O
   8.8977521034000002   11.1191915368799989    1.2452126076000001 O
  10.8074060935200009    9.2167179682500002    1.7576373765600000 O
  11.3007037145399991   12.7560970132199998    1.9853095298400001 O
  11.3264988967800004   11.2627098483299992   23.0317113405600011 O
  10.8453059821800011   10.9598033086200015    3.5982270511199999 O
  13.2876022940999992   10.3902950863800001    1.0464751440000000 O
  15.4694976508799993    8.8363352267999993    1.9822930826400003 O
  15.6385935279000012   12.5461059294599995    1.8752092070399999 O
  15.1802004533399995   10.6893902620799999    3.7515553826399999 O
   0.4211627329800000   14.1341096675699998    1.4592411381600001 O
   2.6414337092399998   16.3591925898600010    1.9127987798399999 O
   2.1334412917800001   14.5228903297200009    3.7042667719200004 O
   4.6028366407799997   14.0992905963599995    1.7753880081600000 O
   6.8640380872200000   16.0369062331499990    2.0811861439200001 O
   6.5739480049800001   14.3278001719199999    3.9135850041600002 O
   8.9549455197600007   14.6687988186000009    1.2470688828000001 O
  11.3238030888000001   15.9801018362100002    2.0541773397599998 O
  13.3175028571199991   13.7734943394600009    1.0516495111200002 O
  10.7636036187600013   14.4869084694899986    3.7535972853600001 O
  15.4311044117399998   16.2304029393299984    2.0988439617600001 O
  14.8792918998599983   14.2175936125800000    3.6800887874399999 O
  15.6730928221799992   14.4099059966100000    0.2490425215200000 O
