Mg12 V24 O60
1.0
  17.6196599999999997    0.0000000000000000    0.0000000000000000
   0.0000000000000000   21.5331299999999999    0.0000000000000000
   0.0000000000000000    0.0000000000000000   23.2034400000000005
Mg V O
12 24 60
direct
   3.5851426988399999    1.9585027728900002   23.2310985004800017 Mg
  12.3272074864800008    1.4456482156800001    0.3859892244000000 Mg
   3.4225308566999999    5.2174343327399999   23.1125985323999998 Mg
   8.2280640661200000    5.5794062480399997   22.9240937858400002 Mg
  16.6841970112799984    5.7582388926900006   22.6783925596800024 Mg
   3.4649237586599999    8.8769682431099994    0.2693919384000000 Mg
  12.0723919635600012   12.5987974985699989    0.0372183177600000 Mg
  12.0794926865400001    8.8380578772000007   23.2287085461599965 Mg
   3.7056435535799999   16.4684947577400003   23.1801901531200016 Mg
  17.2094919348599973   15.9858942481799993    0.5651893915200000 Mg
   3.6814869997199997   19.8827017180200016    0.2271152707200000 Mg
   8.0603601422399986   19.4653035261000014    0.1956049992000000 Mg
   1.3288571375400000    3.7273848030000001    1.8849778552800001 V
   2.5561721745000003    2.0884121461800000    4.1253395976000000 V
   6.1083132501599993    3.2990262479100001    1.8092650305600000 V
   6.4234056299400004   21.5016916301999998    1.7619996232800001 V
  10.3292966194199991    3.5239397907599996    1.6296704049600002 V
  15.1799009191199996    3.7414890031499999    1.4003044005600001 V
   1.5559040762999998    7.2669576461399998    1.8109820851200003 V
   6.1877426774400002    7.0094644775999990    1.8474114859199999 V
  10.1622974819399996    7.2368327972700000    1.7325776613600001 V
  15.0157033075799990    7.2693262904399996    1.6261898889599999 V
   1.7583363500399998   11.1129899954399995    1.7276817355200000 V
   5.8161969070199993   10.5180080804099987    1.8194977476000000 V
   7.2004150162800000    8.8392206662200010    4.0073036983200003 V
  10.3165047462599997   10.8272022940800010    1.7373111631200000 V
  11.4360931819800005   12.8399900877000004    3.6779076640800001 V
  14.6556984144599998   10.8590928596099996    1.7225537752800000 V
   2.0170634374800001   14.5394062404300008    1.7942059980000002 V
   6.0165148215599995   14.2576021681200000    1.8087313514400001 V
   6.5848721941799999   16.0998045058800017    4.2246271173599999 V
  10.0210054284000005   14.4301040725499998    1.8068982796799999 V
  14.9421059877599998   14.3111981286900001    1.7551546084800000 V
   1.4588021300400000    0.1183245493500000    1.9202238806400000 V
   1.8078475946399999   17.9530102730699994    1.8886439987999999 V
   5.8939524665999992   17.8875064916100008    1.8611943292800002 V
   1.5769595699999999    1.9609144834499999    2.3610892406400001 O
   1.9726266549600000    0.2099910837600000    3.7769399460000002 O
   2.2249578058199999    3.6428672677499998    0.0658977696000000 O
   4.4538976548000004    3.1146380557200000    1.6119661802400000 O
   7.0905388165199996    1.7718751351799999    2.2953770985599999 O
   8.5366547913600002   20.9035012788000003    1.6590227565600000 O
   4.8179726893799995   21.4084962435599984    1.5636334147200002 O
   6.6509459191799998   21.4281990575099996    3.9608040045599999 O
   8.9802825908399999    4.4501012451899999    1.0647594547199999 O
  10.6284960658800003    1.5357428315999999    2.0789122068000001 O
  11.3433080524199994    3.3688581885000000    0.0799126473600000 O
  17.2809044168399986    3.8672640154800000    1.9359326095199998 O
  13.5755075385000001    3.7794088450800003    1.4898928824000002 O
  15.4391037373800000    2.0302296289199999    1.8914052081600001 O
   2.4917723171999997    5.5034588985299999    1.9294820532000001 O
   4.5744337488599998    6.9764111230500001    1.3920671793599999 O
   1.9278727185600000    7.3237405099500004    3.8630247083999998 O
   2.5116120543600000    7.2138138812999992    0.1479683368800000 O
   6.6422594267999999    4.9122022149899998    2.0094179039999998 O
   6.6795954863400002    7.0057607792400010    3.7389791181600001 O
   8.4951781117199996    7.5463284747599992    1.4688473623200000 O
  11.1075922409399990    5.5014347843100007    1.8459496692000001 O
  10.7026924541399993    7.2152996672700001    3.6040511145599998 O
  13.4057068750799999    6.9187238677799998    1.1497536554400001 O
  17.6223029490000016    7.0070312339100003    1.4745554085599999 O
  15.6462933193199998    5.4925416016200002    1.7259646809600002 O
  15.3233073318599988    7.3132538756400001    3.5298233100000003 O
   2.0375727217199997    9.2503527173099993    1.9171610265600001 O
   1.8383472261000000   11.1501992440800013    3.6791374464000004 O
   2.5263597097800004   12.7889996358599980    2.1964608338399998 O
   0.1660652955000000   10.9438041930299992    1.2292022339999999 O
   6.5345328255599995    8.8423214369400007    2.2463250264000001 O
   4.2242782456799999   10.5093086958900006    1.7116017515999999 O
   6.5496328741800003   12.3994007147700014    2.0083505457600004 O
   6.4060326451799998   10.5217979112899993    3.9832649344799997 O
   8.6681855532599990   10.8388086511499999    1.4050379023200001 O
  11.0460996275400003    8.9954435243699997    2.1213745020000001 O
  10.9777001074199987   12.6386983884599999    1.8488500992000001 O
  10.9575960753599997   10.6121078585100008   23.1542023003200015 O
  12.9388916030400001   11.2194067239000006    1.6784672392800000 O
  15.5862983770199985    9.2829108098699997    1.7749239393600003 O
  15.3386011967399991   12.4666917460199986    2.0256139051200002 O
  15.1525023478199987   10.7501998212000007   23.0244022569600020 O
   0.3978166834800000   14.7771965950200013    1.7561523564000001 O
   2.8964254287600002   16.4280986058600007    2.0707213924799999 O
   2.3392741599000000   15.1423984798200006   -0.0111608546400000 O
   2.0479154621399998   14.5723949955899990    3.7910940444000003 O
   4.4229222925200000   13.9959100392299991    1.2863291032799999 O
   6.5026060016399994   16.1172894074400013    2.3961960453600000 O
   6.4526190262199998   14.2316978127299993    3.7028513620800001 O
   8.4862097047800003   14.7858959795399993    1.3380727744800001 O
  11.2160941072200000   16.1821902612600006    2.0602798444800001 O
  10.6351034383799998   14.5057068919799992   23.1092108301600021 O
  13.3049048002200010   14.5621021594499993    1.1017921449599999 O
  15.6009050751600000   16.2380902667400022    1.8104484059999999 O
  15.7464082274399999   14.3506898891100008    3.5409841646399998 O
   0.2477147999400000   17.5588893946800013    1.8824486803200002 O
   2.4585768777599997   19.8903029129099984    2.0229687129600000 O
  17.3472071974200013   21.3693059469600009    1.7541568605600000 O
   2.3474320624800002   18.0325967215500000   23.1403034397600003 O
