Mg12 V24 O60
1.0
  17.6196599999999997    0.0000000000000000    0.0000000000000000
   0.0000000000000000   21.5331299999999999    0.0000000000000000
   0.0000000000000000    0.0000000000000000   23.2034400000000005
Mg V O
12 24 60
direct
   7.5197184947999993    2.1494801028599997   23.1628107765600006 Mg
  16.7872015436399984    1.7126374945499998   23.2013980972800020 Mg
  12.2021079004799997    5.1413793175800002    0.1046707178400000 Mg
   3.3449338740600001   12.4318080754200011    0.2478823495200000 Mg
   8.2572950820599988    8.6985231947999999    0.1451839240800000 Mg
  16.5713078496600019   12.3436945074600004    0.3531099499200000 Mg
   8.3875924677599993   16.7462075353499991   22.6669068568800007 Mg
  12.2856074692199986   16.1962944614099982    0.0542496427200000 Mg
  16.7216916477600002   16.3537016417099998    0.1569480681600000 Mg
   8.0453129525999998   20.0651949947699997   22.7745012081600002 Mg
   0.7304406249600000    3.6462695022900000    6.3454911436800003 Mg
   4.8612465743400000    2.8870974710100001    5.3626398321600002 Mg
   1.9424970363599998    3.3425877699000002    1.5143725116000002 V
   1.6703966269799999   21.2910976187999985    1.7050119746400001 V
   6.3746167914000003   21.2132984201100001    1.6826670619199999 V
   5.8354728150600002    3.5866442653199999    1.7311622515199998 V
  10.3260017429999991    3.2576180389200000    1.8914284116000002 V
  10.2302036515800001   21.5145899750699989    2.1130676704800000 V
  11.5852083645599997    1.5969184539300001    4.1595182647200000 V
  14.9375953547999991    3.5940301289100001    1.7680325176800000 V
   1.9275731843399999    6.9935514945299992    1.6930389996000001 V
   6.0390679863600001    7.1807820598799994    1.7360117704800000 V
   6.9055852455000002    5.1225593619599996    3.7812789892800001 V
  10.4444058581999997    7.0729872111000001    1.7465693356800001 V
  14.9785963036199981    7.1370052065899996    1.6594636219200001 V
   1.4566349118599999   10.7005013571600003    2.0775200004000003 V
   6.2444075039999998   10.7281068298199997    1.6220132697599998 V
  10.6259940741599994   10.6430079000599989    1.8103787956799999 V
  14.6716970657400001   10.4112037556099999    1.9844045956800000 V
  15.9257058875999995    8.7753103363800005    4.1919566738400000 V
   1.2089377315799998   14.3514004823999990    2.1526759425599997 V
   6.1141101183000002   14.4057931687799989    1.9387170223200001 V
  10.7908083738000009   14.1166893654000010    1.7453163499200000 V
  14.7902068988999993   14.2464910730399996    1.8612871430400000 V
   1.6997686001999999   17.8942032950400005    1.7199085831199998 V
   6.4577815866000003   17.7243068993400001    1.5469269379200001 V
   0.5883733063800000    2.8217659545900000    0.7444591689600001 O
   1.5982441192799999    3.5839526240700001    3.2700607991999999 O
   2.4717035244599996    1.5347307744900001    1.8359025796799999 O
   4.8270820535999999   21.2261967649799992    1.0874988259200000 O
   4.3191424951199995    3.1281608613600000    1.5317982950400002 O
   6.4749607550999997    1.8180636990300001    1.7283546352799999 O
   6.2266645063799997    3.4558305005699999    3.5618208537600000 O
   7.0552290178799995    0.0515287800900000   23.0075101526400019 O
   8.8290706687200000    2.8834368389099998    1.2731495493600000 O
  11.0139085087200002   -0.0339792791400000    3.8555067938400001 O
  11.1862992621600004    3.4355032258499998    3.7058214023999998 O
  11.3849961679799989    1.8462290330700000    2.1951846446399998 O
  13.3073010739799997    3.7978196712300001    1.3139179934400000 O
  15.2552954442599997    1.5832233832499998    2.4006279024000001 O
  15.6345938650799994    3.5780310133200000    0.1946536581600000 O
  15.4866063407399999   21.3826995538200002    0.1384549264800000 O
   2.1266577226800001    7.0389002663099998    3.6440538451199997 O
   2.9086887121200000    5.4166157852399994    1.9899038109600000 O
   4.3883348999400003    7.0799854783500002    1.4976892382400002 O
   6.7176187126200002    5.4579378617099996    1.7457340118400000 O
   6.4765289048400003    7.0642016940600003    3.7432021442400001 O
   6.6495892053599999    7.4269272689100001   -0.0329256813600000 O
   8.9847051254999997    6.9318375439500004    0.8445356056800000 O
  10.6311918738599989    6.9548349267900003    3.7183976668800001 O
  11.0092921577999991    5.2905177759599997    1.7529502816800000 O
   0.5605518632400001    6.1525535692500002    1.1708223789599999 O
  13.3345058290200011    6.8943698977499999    1.1721217715999999 O
  15.7987914766199999    5.2207289016300003    1.9157920236000001 O
  15.2736022709999997    7.1096150652299999    3.6065802895199996 O
   1.7589706577999999    8.9331697124099989    2.1065010969600002 O
   2.0538532875600000   10.5725945649599993    3.8623286052000001 O
   2.1781423691999997   12.7663037168399995    2.0212748618399998 O
   6.9051447540000002    8.9245133941500008    1.8604518192000001 O
   4.6018147004999994   10.3203985463999999    1.1533037817600000 O
   6.7395551893199999   12.4849087739999991    2.0880775655999999 O
   6.4246918651199998   10.6135075119600000    3.3930390311999998 O
   8.9777629794599996   10.4188049505000002    1.5858391068000002 O
  11.1460030997399997    8.9103445946100006    2.0428772644800000 O
  11.4930927820799997   12.4503050340899986    2.2475780121600000 O
  13.0771002160799998   10.0207004430599991    1.7360813808000000 O
  17.4616997480999991   10.7646916176899996    1.6594636219200001 O
  15.8089932597600011    8.8334713205100002    2.0323661061600000 O
  15.0848076140999989   12.3258004764300004    2.1098191888800000 O
  15.2506086146999991   10.5820045427700009    3.9173671648800004 O
  17.3866047571799989   13.7649026205900000    1.6494165323999999 O
   2.4112680906600001   16.0776899813699998    2.0108101104000000 O
   2.3316624667800001   14.2335065956499989   23.1016929156000010 O
   4.4077341456000001   14.4026923980599992    1.3942947096000000 O
   7.0309667460599998   16.0046926706699999    2.2889729491200002 O
   9.1562853745799995   14.0708022653699985    1.2911090119199999 O
   6.9146946097199997   14.2467064043400011    0.1494765604800000 O
  11.0536937009999985   16.0220053071899997    2.2227039244800002 O
  11.1771017996399991   14.3504099584199984   23.0854041007200017 O
  13.0800074599800009   14.3597984030999992    1.4299583968800000 O
  15.7399946711999998   16.0273024571699985    2.0943889012799999 O
  15.2231043254399996   14.3343031771800007    3.8971337652000000 O
   2.3712362231399999   21.2963086362600009   23.1503969361599999 O
   0.0202626090000000   17.5086095361299989    1.3782843360000001 O
   2.5511329517400001   17.7998020531200005    3.3650556825599995 O
   2.3882744343600000   19.6212895198199995    1.8643267936800001 O
