Mg12 V24 O60
1.0
  17.6196599999999997    0.0000000000000000    0.0000000000000000
   0.0000000000000000   21.5331299999999999    0.0000000000000000
   0.0000000000000000    0.0000000000000000   23.2034400000000005
Mg V O
12 24 60
direct
   7.9606152469799998    1.9417284646200001    0.1566232200000000 Mg
  12.5003030263199992    1.8273875443199998    0.2268600328800000 Mg
  16.7239998232199980    1.8236407797000000    0.1374803820000000 Mg
   3.5950978067399997    5.4397208337300000   22.5013967193600024 Mg
  16.7879944283399993    4.8139250096700001    0.3749211835200000 Mg
  16.4385084722399988    9.2885740230600007   22.9983912007200004 Mg
   3.5628362092799999    9.1640479322699999    0.4945117132800000 Mg
   3.1694068211399999   12.2798918432699988   23.1180049339200018 Mg
  11.8702063650599996    9.1575879932700008    0.0216256060800000 Mg
  16.6246954194600001   12.8070013325400005    0.0892636336800000 Mg
  12.5170064639999996   12.6776948868899986   22.9169007194400010 Mg
  16.6101944392800007   16.0693997263200004    0.1231406560800000 Mg
   1.9973294182799999    3.4643145537900000    1.6417826006400000 V
   5.7558848108400005    3.5319931813800003    1.8637235042400002 V
   6.0591191594400007    0.0695520099000000    1.6030328558400000 V
  10.2925067693400010    3.6995855321700000    1.9249805858400000 V
  14.8389076391400003    3.5404126352100000    2.0569617525600004 V
   1.6882277229000000    7.0876297394999996    1.7402812034399999 V
   5.8577440652999995    7.1494944219900001    1.8760677343199998 V
  10.3313052606599989    7.4451658300199997    1.6535931516000000 V
  11.8265977065600012    5.4684244960199999    3.8482441171200001 V
  14.9824021501800004    6.8841416609999992    1.7089797628799999 V
   1.3125765717000000   10.7267071763700006    1.6670511468000002 V
   6.2065428546599994   10.7848896936300012    1.7470798113600001 V
  10.0214987788799998   10.9727016534900006    1.8533051596800001 V
  11.4644079756000004    9.1410505494300001    3.9418235906400003 V
  14.5391972225400004   11.0405956123800006    1.4787552311999999 V
   1.5556926403800000   14.2175074800600001    1.7673596179200000 V
   2.9001431770199999   16.3026896567400001    3.6718979731200001 V
   6.1147268064000002   14.3695098447300005    1.7608394512799999 V
   7.3274527648800003   16.1748043976700018    3.8384986723200001 V
  10.8678062880000006   14.3886958635600006    1.7880106795200001 V
  14.6817931309199992   14.4450911310299990    1.7681253314400001 V
   1.6826070513600000    0.0233203797900000    1.6774926948000000 V
   1.6955927407800000   17.8130018618100010    1.5728219769600000 V
   2.3137256528999997   19.6859965754699999    4.0772388664800001 V
   2.1950572427999999    1.7225427343499999    2.3160049567200001 O
   2.2561798433400000    3.6800765163899998   23.0282076211200000 O
   4.0311139130999996    3.4066703647800001    1.3900252766400001 O
   0.3110750973000000    3.3022992836700000    1.4052467332800000 O
   0.0307110673800000    0.0284452647300000    1.1164799224799999 O
   2.5222895683200002    3.5980998904799999    4.0778189524800004 O
   6.3254227006799999    1.9284855896699999    2.1344380387199999 O
   6.6560027615999999    0.0163221125400000    3.9560937062400003 O
   6.1211051233199996    3.5675443790099997    3.9313588392000001 O
   8.6098468589999992    3.3513517538099999    1.6547301201600000 O
  11.2421007253800003    1.8808758392399998    2.0854323734400002 O
  13.2233081547599998    3.2734448894699999    1.5114488781600002 O
  15.4563005255399997    1.7350965491399999    1.9097359257600002 O
  13.0659998302800009    0.0812660326200000    1.7090493732000001 O
  15.4758935874599999    3.3437720920500000    0.0978257030400000 O
   2.3912521568999998    5.3102205899100001    2.2198034944800002 O
   1.8569183477400000    7.4601098222399997    3.7406729692799998 O
   2.0957704586999997    7.4665697612399997   22.9907108620800003 O
   0.0854377313400000    6.8859719770499996    1.3170736612800000 O
   4.1980954309199996    7.1323540505100000    1.6187183812800001 O
   6.5438536256999997    5.2493248982700003    2.0877527174399999 O
   6.1044721642799997    7.1748819822599996    3.7721600373599999 O
   8.6996190266999989    7.1036503882200002    1.5660001656000000 O
  10.5957939769199996    5.5718265862799994    2.1130908739200001 O
  13.2480990163800012    6.4165928093100000    1.4722582680000003 O
   8.5317212865599998    5.3650870051499995    4.2383635538400002 O
  11.0678070486600006    7.3371987161999996    0.0260574631200000 O
  15.7827928253399996    5.2125032459699998    2.1527687563200000 O
  15.6253083042600007    6.8672596870799998    0.0776851171200000 O
   2.2251340024199999    9.1544656894200003    1.9920385274399999 O
   1.8166574246400000   10.8837052272000001    3.6381137644799999 O
   2.2150379372400000   12.3742930851900006    1.8869965545599998 O
  17.3447052056999986   11.0787953849999994    0.9884201371200000 O
   2.0785912901999999   10.7287958899800007   23.1161022518400010 O
   6.4550505392999993    8.9756761110299994    2.2427284932000000 O
   4.4265343228199994   10.6924910327999996    1.5908974567200000 O
   7.0003085376600005   12.4829923254299988    1.7812584784800001 O
   6.7631655337200005   10.8219051440999987    3.8737446976800003 O
   8.4281176857600002   10.3854931983899998    1.2579977030400000 O
  11.1069050742000002    9.3524412866399995    2.0336422953600000 O
  10.5273944567999997   12.7598007115800005    2.2588548840000002 O
  10.8857078625600003   10.9455914428200014    0.0527182156800000 O
   9.9825769499400003   10.6972067882699999    3.9294097502400001 O
  12.9112992154799997   11.2076927011799992    1.4241111300000000 O
  15.3615067547400006    9.0540351711000007    1.8080584516800002 O
  15.3448914153599993   12.7487972821499991    1.8715894704000000 O
  14.8651080735600001   10.9716034638600011    3.7431093304799998 O
  17.6686955137799977   14.3083988217900018    1.1329775683200001 O
   2.2838074702200002   16.0560922519800009    1.9411301800799998 O
   1.8627680748600000   14.0307075773100003    3.6887900774400002 O
   4.5564440760000000   14.1493981898700003    1.4097017937600000 O
   6.8798429222399990   16.1201102474700022    1.5536559355200001 O
   6.6322866992400007   14.3493979013099988    3.6024732806400004 O
   9.3531322160999988   14.5791994646699994    1.1225592237599999 O
  11.1899993907600006   16.3959927090300006    2.2136313794400002 O
  12.8528019442800012   14.3184978597599990    1.9635679065600002 O
  11.4351945793199992   14.4122100415199998    3.8378721794399997 O
  15.4727925272999993   16.0035083485200005    2.0811165336000004 O
  15.3341962817399988   14.3591093429400001    4.1274975175200002 O
  15.1338959868600007   14.7642982501500004    0.0313710508800000 O
