Mg12 V24 O60
1.0
  17.6196599999999997    0.0000000000000000    0.0000000000000000
   0.0000000000000000   21.5331299999999999    0.0000000000000000
   0.0000000000000000    0.0000000000000000   23.2034400000000005
Mg V O
12 24 60
direct
   3.1394005401600000    1.9143598563899999    0.4356677894400000 Mg
  12.3577952162399995    1.6064576305200000    0.2466293637600000 Mg
   3.5802444333599999    5.6097894944700002    0.2202470524800000 Mg
   8.1367413683400009    5.3640318817799999   22.9899915554400032 Mg
  16.5488075438399989    5.7426704396999995   23.1125057186400014 Mg
   3.6984371126400002    9.1781305992900002    0.3764758140000000 Mg
  12.6353048612399999   12.4250897388600006   22.9754894054399976 Mg
  12.4342997799599999    9.0449051239799996    0.2360253916800000 Mg
   3.1012539762599998   15.9259029480000009   23.0741040254400005 Mg
  16.9922943860399975   16.4638005354000008   23.1025978497600022 Mg
   3.4037835384599999   19.9286964837000014   22.9925903407200032 Mg
   7.9438765699799996   19.4934042607500011    0.1185927818400000 Mg
   1.4605464763799998    3.7561530646800003    2.0611383717600003 V
   2.2957712193599997    1.9343856672899999    4.1973166684800001 V
   6.3902278101599999    3.6699559452899999    1.6258418373600001 V
   6.0122684834999998    0.2556843856200000    1.6054692170400000 V
  10.6019079989399998    3.5422214181300000    1.6672135708800000 V
  15.0715047708000007    3.8729056955399996    1.6627585104000000 V
   1.7405757327600000    7.4652131740500005    1.8556719105600001 V
   6.2968612318199995    7.4636412555599998    1.8994335984000001 V
  10.6611981548399992    7.2117467008200000    1.7803767477600001 V
  14.7929027068799996    7.5530683444499997    2.0206483689599999 V
   1.7924303921400000   10.9301952548700001    2.1017907986399997 V
   5.9855394592800000   10.7568104921100005    1.9512004730400001 V
   7.3327034235599999    9.2384018301600008    4.1522323845600004 V
  10.3729052779199993   11.0011038519600000    1.6372579298400001 V
  11.3347977566399987   12.7296973958400006    4.0823204198400003 V
  15.0345915830999992   10.9495966049999982    1.5989490503999999 V
   1.7961305207400000   14.2209097145999994    1.9361414404800001 V
   5.8897237481999998   14.4055993706099983    1.7153143020000001 V
   6.8359171098600005   16.1240938765199999    3.8973193927200001 V
  10.5418073386800000   14.4555992984700001    1.6762629124800001 V
  14.8521928627800008   14.7627909310500005    1.6173493783200001 V
   1.4982701684399999   21.5474064651900008    1.8923333457600000 V
   1.9442061433800000   17.9861066938800001    1.8083136895200000 V
   5.6852828332199996   17.9491989090600015    1.9351668960000001 V
   2.0545933132799998    1.8452385090900001    2.0543165604000002 O
   1.7356950869399999    0.2296723645800000    3.9150700243199998 O
   2.3707957316399999    3.7923071899499998    0.2646352332000000 O
   4.7255928119999995    3.6337372206300000    1.3847812991999999 O
   7.0902921412800000    1.9273012675200001    2.1246925939199999 O
   8.7657984696600000   21.0864036850199987    1.2321954777599999 O
   4.5920181695399993    1.0407177060299999    1.2832894526400001 O
   6.2275278697199994    0.3055551147000000    3.6108497224800002 O
   9.0668303607599992    4.0463765908199996    1.3596751771200000 O
  10.9997951610599998    1.6372284732900000    1.9569781295999999 O
  11.4597035263800002    3.7618593441299999   23.1481926093600023 O
  17.4692938215599973    3.8780951798700003    1.7590991932800002 O
  13.3613934301799997    3.4635824273700000    1.3898164456800000 O
  15.2562997648799996    2.1526024067099998    2.0422971784800001 O
   2.0074254834600000    5.6010470436899995    2.0577274660799998 O
   4.8517848169199995    8.0746438193099994    1.5099870614399999 O
   2.0312472637800001    7.2625864207499999    3.8177315935200005 O
   2.5945301743200000    7.2193694288400003    0.3102763996800000 O
   6.4979720310599998    5.4704270771100001    2.1517710083999999 O
   6.5743356374999999    7.3481160131100003    4.0173739912800004 O
   9.0190987018200008    6.8284569868200000    1.6300648634399999 O
  11.2111958417400004    5.2970638474799996    1.7825346676800000 O
  11.0897082860400005    7.3607774935499997    3.7461025742400000 O
  13.1619036396600002    7.7299630074000003    1.7548065568800000 O
   0.3447462675600000    8.1055869271199992    1.1981328278400001 O
  15.6043937678399995    5.6730968966699997    1.9989067456800000 O
  15.4876987596600006    7.4022287688000006    3.8681526686400001 O
   2.6023180640399999    9.3123896648399995    2.2703173833600001 O
   1.9254412054799999   10.8815949804599992    4.1587989580800002 O
   2.4709987380600000   12.6161101350900005    2.5530512997599999 O
   0.1340503732800000   11.6477006795999998    1.7038285992000000 O
   7.3397160482399997    9.2340306047700000    2.0400696482399998 O
   4.2151688814599995   11.2104058755599993    1.5218672227199999 O
   6.3076973227199993   12.6138922227000005    2.2860029088000000 O
   6.5459503652400004   10.9405957566600005    3.8241589464000003 O
   8.7446020186800002   11.2930930947600014    1.3624595899200000 O
  11.0468044139400003    9.1985870727899997    2.0871726314400001 O
  11.0360035623599995   12.7666051806600009    2.2116822904800002 O
  11.2856036659200001   10.8477018338400004   23.0910889435199991 O
  13.4162081924400010   10.8901005668100002    1.1110039106400000 O
  15.6400911990000004    9.2306929696199997    2.1907991944800003 O
  15.3119074118400000   12.7986895443600002    1.4862963492000001 O
  15.8047997806799998   10.7360094885299997   23.1677067024000003 O
   0.0594311131800000   14.0636963324700002    1.9031229453599998 O
   2.2461718764600000   16.0262904000599988    2.1511213120799999 O
   2.0613945020400002   14.0585068481399986    0.1126527012000000 O
   2.0336082982199999   14.5793932628400000    3.9996001562400001 O
   4.3297847697599998   14.2046952677099991    1.1618890545600000 O
   6.3782112020399993   16.1672893352999978    2.0332246334400002 O
   5.9681840941799997   14.4937990710900007    3.8616789088800001 O
   8.9212743495000009   14.6430021288600010    1.3695134356800001 O
  11.1652966274400001   16.3372933966500007    2.0871494280000000 O
  11.3436956849399984   14.0899021516800005   -0.0984057890400000 O
  13.2355009594799995   14.8872093561899987    1.0885661841600001 O
  15.7716924395399989   16.4240934436800003    1.9126827626400000 O
  15.5944034206199991   14.5420978816800002    3.3758452821600002 O
   0.5085914858999999   17.9564986401300004    1.1155517848800001 O
   2.1285254066399997   19.8527922004500006    1.7317887444000002 O
  17.4707033943600010   21.2022949906799987    1.7868505075199999 O
   2.2758433838999998   17.9004048364799999   23.0867963071200002 O
