Mg12 V24 O60
1.0
  17.6196599999999997    0.0000000000000000    0.0000000000000000
   0.0000000000000000   21.5331299999999999    0.0000000000000000
   0.0000000000000000    0.0000000000000000   23.2034400000000005
Mg V O
12 24 60
direct
   7.6328543316599999    1.4441839628399999    0.2800423173600000 Mg
  12.5471008432799991    1.9918360581300001   22.7076056906400012 Mg
   3.7927727722800002    5.6713742462699992    0.1688514328800000 Mg
   8.0312172245999989    5.5409911441199995    0.0322991884800000 Mg
  12.5429073641999995    5.2345962373499999    0.3152419358400000 Mg
   3.2458409062199998    8.9319423239999995    0.1706845046400000 Mg
   8.0935027227000003    9.0638327452500000    0.2890452520800000 Mg
  12.2129087520600006   13.0279958457300005   22.9004030735999997 Mg
  12.4859077641000003    9.0125408295899998    0.5137009581599999 Mg
   3.5044622756999999   15.5571911630100015    0.5647949330400001 Mg
  12.5697949653599998   16.1874012787199995   23.2569007257600013 Mg
   3.5043389380800001   19.9858023444600015   22.6156040510400018 Mg
   1.7948619052199999    3.5283756155399999    1.7216720445600000 V
   6.1702639747200001    3.8132589254400000    1.7341322918400000 V
  10.6679993436000000    3.4958821223699998    2.1118842950399999 V
  15.1246985243399994    3.5520405254099998    1.8424691532000002 V
  14.7094912364399999   21.5126950596300013    1.8499406608800002 V
   1.7130362041800000    6.9605196731100003    1.9493674012800002 V
   6.1342317700199995    7.1525521264499998    1.6584890774400001 V
  10.6163913594599997    7.1969965067699997    1.6672599777600001 V
  15.2444064943799997    7.2535640392799996    1.7815833266400001 V
   1.5459842077199999   10.7340069074399995    1.9582079119200000 V
   5.9814869374799997   11.0346094022400010    1.7435064816000001 V
  10.4370936992999983   10.8432014096699998    1.8468313999199999 V
  15.2571983675399991   10.8056045646899985    1.7743438533600000 V
   1.3263727654799999   14.1627917967299997    1.9966560120000001 V
   6.0296590879199998   14.3152894233900003    1.9118938456800001 V
  10.4780065498199999   14.3158923510299996    1.7991251272800000 V
  11.5846973944200009   16.2088052099399995    3.8253887287200001 V
  15.1064974155599998   14.3644926254400005    1.6243800206400001 V
   2.0117775394800002   21.4583023732499996    1.4730471849600000 V
   1.6982004504599999   17.9255985985800024    1.6638490720800001 V
   5.6768958750599996   21.4858001802600000    1.5332833152000001 V
   5.8894946926200005   17.8015893029099992    1.8432812735999999 V
  10.4730025663799982    0.0441644496300000    1.8892008813600001 V
  10.5232009777200002   18.1625922273600011    1.7803535443200000 V
   0.1803196004400000    3.2022994279500003    1.7141773334399999 O
   2.5109425072799998    1.6917072921899998    1.8236047564800000 O
   4.6404722345400007    3.9435558950699998    1.3874728982400000 O
   2.0459244405599999    0.2756240640000000   22.8067075828800014 O
   6.4380651870600003    1.5760313178300001    1.8794322331200000 O
   6.6990828303000001    3.5341034281199999    3.4795878624000003 O
   8.8559582698800003   21.3443059830300008    1.5195700821600002 O
   6.9932254343400002    3.6062824798800004    0.0239227466400000 O
   9.0164205135000000    3.2726696967900000    2.0068655255999999 O
  10.7982086309999996    3.8321865467099996    4.0872859560000006 O
  11.0533941667800004    1.7443988612999999    2.4151532558400000 O
  13.5321984142199980    3.1974544737000001    1.8324684705600001 O
  13.0069915889400001    0.0905683447800000    1.6728520068000001 O
  15.7116974972399994    1.5704327040299999    1.8031161189600000 O
  15.9362953032599997    3.9871604833199998    0.1248809140800000 O
  15.5799024404399997   21.1789100115000011   23.1599103465600002 O
  15.2545025595600006    3.5429320114200005    3.9351409999199998 O
   2.5285974065999999    5.2590363398999997    1.9401324321600000 O
   4.4940704796000004    7.1311051289699998    1.4488459970400001 O
   2.3426923739399999    8.9639836214400006    1.9201774737599999 O
   7.1596255033800000    5.4754012301400001    1.9629414136800001 O
   6.4052926194599999    7.1182929166199997    3.9540982104000002 O
   6.9052328523000002    7.2574400026800001   23.1593070571200030 O
   9.0930131755199994    6.7153434549300002    1.2310353057599999 O
  11.1384971245800006    5.4140533427699999    2.1126036016800001 O
  13.6389030751800000    7.5508288989299999    1.5489688406400000 O
  11.5777023893999989    7.4439169084800003    0.0990554853600000 O
   0.1259629493400000    6.6920876745299998    1.5698055297600002 O
  15.3756024827400015    5.2786960875900002    2.2380878052000002 O
  16.0040076566399989    7.3518412446000001   23.0232884918399989 O
   2.0473163937000001   10.7275900347000004    3.9355122549600003 O
   2.3304819495599998   12.4259079977999995    2.0431557057599998 O
  17.4381951216600015   10.7483910382799994    1.6869364948800001 O
   2.1499685328600000   10.5730898269499995    0.1289647195200000 O
   6.5757452103000000    9.0167613230699999    2.0281198766399999 O
   4.4642051559000002   11.3056038432899992    1.3781683188000000 O
   6.8379962297399999   12.7270057545899995    2.0999809303200001 O
   6.3335629836000003   10.8360093442499998    3.7018768175999996 O
   8.9230363154999992   10.7531929262699997    1.2964922100000000 O
  11.0009051996400000    9.0703572836399999    2.0939480359200000 O
  11.1029054113800001   12.6312048592199986    1.9421047245600001 O
  13.4064997597799991   10.9456991084699986    1.4074278566400000 O
  11.0980952442000014   10.9769006138399998    3.7743875676000003 O
  11.1470074203600014   10.5708934476900005    0.0992411128800000 O
  16.0098926230799989    8.8849570343399993    2.0136641335199998 O
  15.5806072268399998   12.6598008558599986    2.0835993016800001 O
  17.2828073401200015   14.2001087110200004    1.6462608645600001 O
   2.0253622973400001   16.0150931724599985    1.8837016660800001 O
   2.1864588487200001   14.1051906739800010    0.2409445209600000 O
   1.8533063174400000   14.1436057779000013    3.8317928781600004 O
   4.2910919963999996   14.2554919213800009    1.7716986612000001 O
   6.9666197477399994   15.9588917031600008    2.0057285570400003 O
   8.7869068223400006   14.1343034657400004    1.4794977412800001 O
  10.7100046130400006   16.2360015531300022    2.0790746308800001 O
  10.9543011989399997   14.6695094118899991   23.0324074437600004 O
  10.6112992777200006   14.4591091986600002    3.7207644177599999 O
  13.4291938818599998   14.5517016576599989    1.1226520375200000 O
  15.7550066215199998   16.3723923985499979    2.1793134916800003 O
  15.3015999107399985   14.2234936901999998    3.6742415205599999 O
  13.3311052346400007   17.7142078613699994    1.7682413486399999 O
