Mg12 V24 O60
1.0
  17.6196599999999997    0.0000000000000000    0.0000000000000000
   0.0000000000000000   21.5331299999999999    0.0000000000000000
   0.0000000000000000    0.0000000000000000   23.2034400000000005
Mg V O
12 24 60
direct
   8.2907548163999998    1.9750617498600000    0.1645355930400000 Mg
  16.6912977342600009    1.5459710683499999   23.0369089111200012 Mg
  12.3114026514599999    5.5249704953999998    0.4011178672800000 Mg
   3.5551540375199999   12.5166916738800005   22.8102113023199990 Mg
   7.7568086397600000    9.2674069562699994   22.9146963926399998 Mg
  17.3974937070600006   12.3756927386399997   22.7574002728800018 Mg
   7.8071127690599997   16.0917941815200010   23.0160954254399996 Mg
  12.5673986915999993   16.4603983008599997   22.8380090234400015 Mg
  16.8752998436400006   16.2364106825999990    0.0605377749600000 Mg
   7.8818377471199996   19.8901952472599994   22.9333983652799986 Mg
   0.9218606112000000    3.6296674590599998    5.6499448262399996 Mg
   5.7521494429199995    3.4458606613799998    5.9193135612000010 Mg
   1.9261107525599999    3.8858901729300004    1.6800450732000001 V
   1.4187878821800000    0.2869504903800000    1.6576073467200001 V
   6.4217493818999998   21.4982893956599987    1.7552706256800001 V
   6.0639469462800006    3.5900249667300002    1.7729284435200001 V
  10.3799002829399996    3.8020832309700001    2.0499079068000001 V
  10.5805001120399993    0.1362185803800000    1.8673896477599998 V
  11.4295915274400013    2.0633475828600001    4.0029414515999999 V
  14.8487922684000004    3.6579404587499997    1.8481075891200001 V
   1.7274843253800001    7.2284779428300006    1.4658309151200002 V
   6.0471377906399999    7.4311477623900002    1.4342278298400000 V
   6.9116992675200004    5.6380624941600006    3.7559176293600003 V
  10.2561045517800000    7.0742576657700003    1.8102163716000002 V
  15.0371992927800004    7.3197999471599999    1.6284406226399999 V
   2.0447439233400000   10.6955918035199993    1.4688705657600001 V
   5.7115008873000006   10.7893901177999982    1.7869433212799999 V
  10.2808073151000006   10.7705055627900013    1.9012666701600001 V
  14.9510920143600003   10.6915005088200008    1.5386201063999998 V
  16.1134962238800021    9.1372607185500012    3.8366656005599999 V
   1.8261544213799998   14.2504101027000001    1.5767433583200001 V
   5.7411019160999999   14.4512065399500003    1.8478291478400000 V
  10.6237916166600002   14.4577095452100011    2.0471931043200002 V
  14.8824986779799993   14.1152897119499983    1.7120194135200000 V
   1.5560274139200001   18.1628936911799990    1.6917396069600001 V
   6.3361002146399992   18.0771057012599989    1.8110516954400000 V
   0.3049082163000000    4.2085425928499998    1.3391169292800000 O
   1.9744414799400001    3.7873976363099997    3.4311854865600000 O
   2.5725055993199999    1.8295408573200000    1.6443117756000001 O
   4.7656599188400000   21.3912051401700012    1.4914475128800000 O
   4.5419959548000000    3.1452796997100001    1.3051006862399999 O
   7.0829271234000002    1.9840195319400000    2.0418563131200003 O
   6.3727491074399998    3.7712262556799998    3.7529939959199998 O
   6.7614564266999997    0.3188410559100000   -0.0271248213600000 O
   8.9145084000599990    4.0693955067900003    1.6129407247200001 O
  10.9045961380800005    0.1839790627200000    3.9001502124000003 O
  10.9827040908600004    3.8054639323799999    3.8272914108000005 O
  11.1621955672799995    2.0992648436999999    2.0463345770400001 O
  13.3265065033799992    3.9803560142400003    1.2814563808799999 O
  15.3987018569999989    1.9588257698399998    2.1295189094399998 O
  15.6847041781200005    3.5911877557500000   23.1929056382400027 O
  15.6169918247399995   21.1573984146299985   23.1100925608800019 O
   2.2281822035999999    7.4140719903000001    3.5633290773600002 O
   2.8234271773799997    5.6270375316000001    2.0410209892800002 O
   4.4390971403999995    7.9519480445699999    1.1184986217599999 O
   6.0962437830599994    5.4996690676500002    1.9757265091200000 O
   6.5701069191000006    7.4143303878600006    3.3911595525600000 O
   6.9329838168000002    7.2946492513200001   22.9802925175200023 O
   8.8917261796799991    6.6061274195699999    1.0997270388000000 O
  10.3055981767199984    7.2094426559100002    3.9424732869600003 O
  11.2773048060600001    5.4638594724600003    2.2303146528000002 O
   0.1228090302000000    6.8793613061399999    0.9904852432800001 O
  13.2627938128200000    6.9688960606799997    1.5506162848800000 O
  15.3269017424999987    5.3536744462500003    2.1544858108800002 O
  15.4209026286000004    7.3291022593199999    3.5459729042400006 O
   1.5024636475199999    8.8620027177599994    1.8340463044800002 O
   1.8611646857999999   11.0287954571400011    3.4113233419200002 O
   2.3289314194799999   12.6565062869700000    1.0949239267199999 O
   6.8639499889200000    9.2006327201399998    1.9349812684799998 O
   4.0957956849599997   10.7410913072100005    1.6072558819200000 O
   6.4324797548400001   12.7104898438799996    2.1605187052799999 O
   5.7743502145200001   10.6315953411600006    3.7700021174400002 O
   8.7729168123000001   10.8964959064200002    1.2655388210400000 O
  10.6327071646199993    9.0294874028999992    2.1236484391199997 O
  11.3306042775600009   12.6726992007299994    2.0788425964800004 O
  13.4602925817599992    9.9789261708599994    1.0829509516800000 O
   0.3934822471200000   11.3776106300100004    1.0478441469599999 O
  16.0783978611599991    8.9166968679600007    1.8268068311999999 O
  15.7501964543399993   12.5130095086499988    2.0857340181600001 O
  15.2102067343199998   10.7090930760300012    3.5520986124000000 O
   0.2592909165600000   14.3108966648700004    1.4203289692800001 O
   2.3933488964400000   16.4375947161899987    1.9707609729600000 O
   2.0553685783200000   15.1017008641199979   23.0621078469600000 O
   4.0951085182200000   14.2327960023600006    1.4112332208000000 O
   6.5489280877799994   16.1148992300099998    2.0834600810400001 O
   9.0469553842799986   13.9514010595200002    2.0216693203200000 O
   6.7647336834600003   14.3374039479000004    0.2823394579200000 O
  11.4113023203600008   16.1625951129600018    2.1961127822399997 O
  11.3531045833800004   14.7560941276200008    0.1695011292000000 O
  13.6796044897800009   13.2917982213600006    1.0046857485600000 O
  15.6728990059199997   15.8939908493400015    2.0150099330400000 O
  14.8540076877599994   14.2391052094499990    3.6359326411200001 O
   2.5181841875399997   21.2373939925799995    0.0801910886400000 O
  17.5983049720800011   18.0226914817500017    1.2846584556000000 O
   2.0352293069399998   17.9325107333100000    3.8816570707199998 O
   2.1958501275000000   19.9156043406599998    2.1043895839199998 O
