Mg12 V24 O60
1.0
  17.6196599999999997    0.0000000000000000    0.0000000000000000
   0.0000000000000000   21.5331299999999999    0.0000000000000000
   0.0000000000000000    0.0000000000000000   23.2034400000000005
Mg V O
12 24 60
direct
   8.2383363279000008    1.5552949136400001    0.7158493274400000 Mg
  12.3354006283799986    1.6465307854500002   22.6540985580000012 Mg
  16.4144047773599979    1.9338904053000001    0.1884119328000000 Mg
   3.3265213293599998    5.2952765976900000    0.0871753240800000 Mg
  16.7228016863399986    5.4913788126000007   22.2891084468000003 Mg
  16.5802938762600007    9.0523125206999993   22.6602010627200023 Mg
   3.0981529160999997    8.8036910017199990    0.0951573074400000 Mg
   3.5276497482600000   12.7612003650299997    0.1692226879200000 Mg
  12.1290039311399998    8.9852368207500000   23.1232953182400003 Mg
  16.6011026947200016   12.4958045377799998   23.2222115829600035 Mg
  12.3904973051999985   12.5004987601200011   23.0124988922400000 Mg
  16.5752017945199981   15.7130048916899980    0.3590732340000000 Mg
   1.6358973326999999    3.5099001900000002    1.8423299325600000 V
   6.0320025027000002    3.6431471984399999    1.8303337540800000 V
   5.9501415623400007    0.1039188853800000    1.7069378601600000 V
  10.7409975949799996    3.4932766136400004    1.5862103618400001 V
  14.7446953171199997    3.6673504365599996    1.9426848105600003 V
   1.3850638529399999    7.1721257416199995    1.7406988653600002 V
   5.8936176930599995    7.0842921043499993    1.8082440792000001 V
  10.5294911963400004    7.0421302358100002    1.7205582794399998 V
  11.6424017809199984    5.2544282500800001    3.8412598816800001 V
  15.2814077803799986    7.0959199945500000    1.4307937207200001 V
   1.6698327978599998   10.9579083931799985    1.6396478841600002 V
   5.9200119437399996   10.8947947891500014    1.9977001668000001 V
  10.4164082184599991   10.6273102482899997    1.8076639932000000 V
  11.3374054663199999    8.8781740983899997    4.0466799360000003 V
  15.0808960495799997   10.7533005919200004    1.8626561460000000 V
   1.4690743918200000   14.0790063878999998    1.8882959471999998 V
   2.8734141528000001   16.0498907105399979    3.7329926306400001 V
   5.9045418822599993   14.5748067061499995    2.0496758723999999 V
   7.3654759911600003   16.2318025927799994    4.0990268966399999 V
  10.4919965598599987   14.3622962461799997    1.6695107114400001 V
  14.7838990606200014   14.1975893348099991    1.7789845413600001 V
   1.5437288912400000    0.0418173384600000    1.6740353822400000 V
   1.6784664312599999   17.6917057405199998    1.7865952696800000 V
   2.6158147236000002   19.5716987214299998    3.7219245897600000 V
   2.3230288333799995    1.9057896706499999    2.0670784524000001 O
   2.1041926561800000    3.7073374589699997   23.0854041007200017 O
   4.4084741713200000    3.6374193858599999    1.4076830944800001 O
   0.0042287184000000    3.3251244014700001    1.4674319524800001 O
  17.5860064493999992    0.5557700852999999    1.4220228204000001 O
   2.0153367107999998    3.4964204506199996    3.8916113464800004 O
   6.7843619847000003    1.6588908020699999    2.1226042843199999 O
   6.3159609432599995    0.1244184251400000    3.7539221335200001 O
   6.3704937909599995    3.6081127959299999    3.7778680835999996 O
   9.0562585647600002    3.5370965331899997    1.2987661471200000 O
  11.1224984733000003    1.7786150048700000    2.1124643810400001 O
  13.0531022391599993    3.4256195191800001    1.3663113609599999 O
  15.1726944781799986    1.7904797594999999    2.1581287509600000 O
  13.3989937846200000   20.9480963910299991    1.2122173159200000 O
  15.2077928408999998    3.9615575917500001   23.1728114592000018 O
   2.3245617437999999    5.4838852833600003    1.9118706422400000 O
   1.6017151922999999    6.8922165847499999    3.9291313089600002 O
   2.0169048605400000    7.1615529747900002    0.1073159100000000 O
  17.2744027622999994    6.7854768593400001    1.4719102164000002 O
   4.2641515362600000    7.1782842167999998    1.6212011493600000 O
   6.7814371211400006    5.3683385077799999    2.2630547066400002 O
   6.5611208925000000    7.2124357609800001    3.7665912117600002 O
   9.1044835741800014    6.7568377964400002    1.2682768269600000 O
  11.4378022890000004    5.4723865919399994    1.6472818159200000 O
  13.6563993975599995    7.2947353838400000    1.2241670875199999 O
   8.9211686315399987    5.0066680562999997    4.5328152074399997 O
  11.3538974680799996    7.2410532907500000   23.1700038429599999 O
  15.3171933098399986    5.2878692009700003    2.2969549324799998 O
  15.7340039867999995    7.0663980733200003   22.9155085130399989 O
   2.0380484525400000    9.0861410679299990    1.9547505993600001 O
   1.9492806054599998   10.8078009439499994    3.5723552155200005 O
   2.4854820985799999   12.6200937641399999    1.9593912873600001 O
   0.1538548711200000   11.6135922016800013    1.2532642012799999 O
   2.3588143628400000   10.7453979332100005   23.1328087286400006 O
   6.5052665702999999    8.9782170203699998    2.1176155447200000 O
   4.3141032723599997   11.3755003832700012    1.8953265895200002 O
   6.8387186357999994   12.6402918400799997    2.1281034996000003 O
   6.9311866114800003   10.8669955183199995    3.8471999623200004 O
   9.0490345041599998    9.9486290569500007    1.3008544567200000 O
  11.3711999741999996    9.0207234189900003    2.0451512016000000 O
  10.3362035261399985   12.5324969913000004    2.0725312607999999 O
  11.2173979620599997   11.0331020831399993    0.1069910618400000 O
  10.6221001292999997   10.7096098711500005    3.6405501256800004 O
  13.4916027175799993   10.9733907136499997    1.6590923668799999 O
  15.8705034928200011    8.9705512260900004    1.9837316959200000 O
  15.7144990231800001   12.5593057381500000    2.0096731418400000 O
  15.5454031461599982   10.6615909912499998    3.8008858960800005 O
  17.4418952502600000   14.2287908401800003    1.3927632825600000 O
   2.1818248781400000   15.8686032890700002    2.0153115777599999 O
   2.2258740281399998   14.3246994012000020    3.8243677773600000 O
   4.3714552656599999   14.6728901132999994    1.7149894538400001 O
   6.7427619674399999   16.1319104027100018    2.2865365879200001 O
   6.2668373311800005   14.3864994842999998    3.9618713628000002 O
   9.0350621137800005   15.1124028297299997    1.6316194939200002 O
  11.5389919963799983   16.0824918693599983    1.9888596561600000 O
  13.1056969242600001   13.7451998066400005    1.3752910922399999 O
  10.8961915602600001   14.3754960548700019    3.7777752698400002 O
  15.5583007372799997   15.9770010654900005    2.1125803982400000 O
  14.8243009410000006   14.3543935874699997    3.8976442408799996 O
  15.5193965279999997   14.1686057418299995    0.2211055797600000 O
