Mg12 V24 O60
1.0
  17.6196599999999997    0.0000000000000000    0.0000000000000000
   0.0000000000000000   21.5331299999999999    0.0000000000000000
   0.0000000000000000    0.0000000000000000   23.2034400000000005
Mg V O
12 24 60
direct
   7.9724380388400000    1.9881323597699998    0.6993284781600000 Mg
  12.5010959110200002    2.0010307046399998   22.9466011226400006 Mg
  16.9167060446399979    1.9732745000700000    0.1716358456800000 Mg
   3.7274390729999998    5.2315169997600002   22.7399048791200009 Mg
  16.9571079250199972    5.0378049622800001    0.2151422956800000 Mg
  16.4789984509199989    9.6658559937900002   23.0040992469599992 Mg
   3.5400187495800002    8.8375410820799996    0.3079328522400000 Mg
   3.5190161148600003   12.2879021676299995    0.0127618920000000 Mg
  12.4214021888400001    9.3601070809200007   23.0461902871199982 Mg
  16.7216035494599993   12.7442107254600003    0.2350740506400000 Mg
  12.4810975969199998   12.6413038971899994   23.0754034180800005 Mg
  16.5515914501200001   16.3344940897499988    0.6253327080000001 Mg
   2.1341989371599999    3.3700209775200003    1.6530826759200001 V
   6.1177926272400001    3.5091680635799998    1.8039514427999999 V
   6.0560180992800001   21.4859078459099990    1.7118801928800000 V
  10.2543073464599992    3.6700420778100002    2.0859196456800002 V
  14.8635046844999987    3.5528803174800001    1.7811192578399999 V
   1.5200304485400000    6.9942836209500001    1.6761700987199999 V
   6.0131670861600002    7.2515829913200003    1.8139289219999999 V
  10.5956001606600001    7.2118113002100008    1.8285702926400000 V
  11.6865918882000006    5.5064089373399998    4.1007439512000001 V
  15.1929042281999997    7.0776383671799996    1.5627284805600001 V
   1.5770476683000001   10.7595021333599998    1.6447526409600002 V
   6.0542208939600002   10.8394977113100008    1.7552938291200002 V
  10.4617083643199997   10.8042049112399994    1.5283873893600000 V
  11.5001054067599995    9.0897371006400007    4.0545459021600001 V
  14.4672032917800006   10.9241013790799997    1.6945008163199999 V
   1.8317927125800000   14.3781015635999996    1.5722418909600000 V
   2.4422082136200003   16.0284006468000015    3.9026097770400003 V
   5.9260907264400000   14.4708016882499990    1.3948515921600000 V
   7.1881341132600003   16.4338048853099998    3.7178639877600004 V
  10.6737962117400009   14.4903968365499995    1.7032949200800001 V
  14.7073944968999992   14.4664950622500008    1.8403112332799998 V
   1.7393775958800000   21.4311060300600005    1.8986214779999999 V
   1.6771097174400000   18.1072951495199987    1.8465297552000000 V
   2.8353909265200001   19.8428008281299988    4.2723101865600004 V
   2.6284127805000002    1.5499977636600002    2.0835296913599999 O
   2.3334772917600000    3.8970012680099999   22.9572979084800011 O
   4.3512455156399996    3.3424155048599999    1.3563338817599999 O
   0.4161587495400000    3.4963127849700002    1.3116208528800000 O
   0.1780819036200000    0.0224590545900000    1.5214031539200001 O
   2.4343322256000000    3.4634747617199997    3.8301918408000000 O
   6.6315114341999992    1.7492438155500001    2.3579799796800001 O
   6.1310778508799997    0.1553615329500000    3.7484925285599999 O
   5.8303102546800005    3.6955373037299997    4.0421088583199998 O
   8.7568653020399996    3.9111485344199997    1.4220460238400001 O
  10.8114938546400001    1.8277751406600000    2.1810073428000001 O
  13.3376949874800008    3.4665755324399998    1.1869487697600001 O
  15.9005978720999988    1.8742867014599998    2.0256603120000003 O
  13.4276962107600006    0.5685392313900000    1.6456575751200000 O
  15.8317930998000005    3.4961405199300000   23.1741108518399983 O
   2.2031622864000000    5.2328305206900003    2.1330458323200001 O
   1.8231590791799999    7.0906013114400004    3.5587115928000004 O
   2.1207022776000000    7.1652997394100009   23.2029991346400024 O
  17.4458949130800001    7.2092057914799996    1.6279997572800000 O
   4.4261643099599999    7.5449718875700000    1.3770313502400000 O
   6.4783613494800001    5.2653240138599999    2.1153416076000000 O
   6.2195990227199998    7.1438312088000000    3.7977070248000002 O
   8.9529016392000003    6.9715877019300008    1.7358493464000000 O
  11.1553062802200014    5.1919606399499996    2.1003289819200002 O
  13.6993032696599997    6.5975141675700009    1.1876912798400001 O
   8.2979964966599997    4.8960739006200003    4.7751055279200001 O
  11.4138043120799999    7.4396102824800003   22.9585044873599990 O
  15.7815946884599985    5.2376539418100005    1.8581314752000000 O
  15.5584064552399983    6.8432502471300003   22.8613052771999996 O
   2.0639845920599997    8.8858183595400000    2.0896089926400001 O
   1.7444344382999999   10.6096961479500003    3.6689511362400005 O
   2.5668673081200000   12.3627082612499990    1.6486508188800002 O
  17.4575062690200014   10.7834039076599986    1.1984112691200000 O
   2.6183343349800001   10.5955919477999991    0.0582870412800000 O
   6.7154514944399990    9.0032385174300007    2.0950153941599998 O
   4.5286050132000000   10.6571982327299999    1.4575704904800000 O
   6.6862028588399998   12.7570014046799987    1.7670347697600000 O
   6.8057346322800001   10.8567026821799999    3.5115622027200000 O
   8.7567419644199997   10.7863970127299993    1.4672463249600001 O
  11.2378015283400003    9.1031522406299992    1.9995332385600000 O
  11.1491041599000003   12.5840903707800003    1.8791073849600000 O
  10.8342936946799995   10.8556906250700003   22.9092899911199979 O
  10.5460008177599995   10.7958069905399991    3.6874442779200001 O
  12.7459034670599998   10.8391962474899994    1.2331700222399999 O
  15.3578066261399986    9.2945171669400004    1.6815300933600001 O
  15.3941031257400009   12.4565065755299997    2.0045451815999997 O
  15.0003918230399993   10.6911990449999994    3.5897809989600002 O
   0.0992163054600000   14.1077961827100005    1.7243404401600002 O
   2.3608758630600000   16.1670955371300025    1.9474647192000001 O
   1.9153275206399998   14.2672920766200004    3.6965864332800003 O
   4.1914351994399999   14.4274985638200004    0.9664464794400001 O
   6.6724771437000001   16.2352909598400004    1.5050215252800001 O
   6.4283919937200000   14.7332044104300000    3.6334730764800005 O
   8.9472633479999999   14.2849923094799998    1.6450542856800001 O
  11.6107040125799994   16.1919017028900001    2.0884488206400000 O
  13.1377999447799994   14.2989027114600002    1.4252713020000001 O
  11.1830924840399994   14.4041997171599991    3.6504115876799998 O
  15.1840062999000001   16.2083099479499992    2.1566205273599999 O
  14.6823921993600006   14.2726107597300000    3.6967720607999999 O
  15.4995039318599996   14.7524980949100009    0.0618371676000000 O
