Mg12 V24 O60
1.0
  17.6196599999999997    0.0000000000000000    0.0000000000000000
   0.0000000000000000   21.5331299999999999    0.0000000000000000
   0.0000000000000000    0.0000000000000000   23.2034400000000005
Mg V O
12 24 60
direct
   3.4796890337399997    1.7231671951200001    0.1888527981600000 Mg
  12.2801982336000002    1.5534430644599999    0.1075479444000000 Mg
   3.1108919302799998    5.2754876512199997   22.9555112436000002 Mg
   7.8218956637999995    5.6480753996099997    0.2505971520000000 Mg
  16.6079038834799988    5.4252075041099994   23.1400017950399999 Mg
   3.3378507707399998    9.0316837821600000    0.6065379216000000 Mg
  12.6123993032399984   12.5714934897300008   22.8707026704000000 Mg
  12.4196930818200002    9.1781521324199993    0.7741827756000000 Mg
   3.5756457021000001   16.8392091238199981   23.2518887827200018 Mg
  16.7854043383199993   15.9681078828000000    0.1724015592000000 Mg
   3.4910537144400000   19.4581975932000013   22.9201956079200002 Mg
   8.0363621653199999   20.0196954910800002    0.3240592430400000 Mg
   1.3458777290999999    3.3847711715699997    1.8190800856800000 V
   2.7878883231600002    1.8450877771800001    3.8956951519199996 V
   6.0376936528799998    3.5938793969999998    1.6896512973600000 V
   6.0713472034800002    0.0110895619500000    1.8211683952800000 V
  10.6129026667800002    3.6188147615400004    1.7191660730400002 V
  14.9630029045199997    3.5041293111599998    1.5056712216000001 V
   1.3405213524599999    7.1084307430800004    1.8862308410400002 V
   5.9018284546200004    7.4092916354399998    1.9600409836800001 V
  10.5119067756600000    7.3297482532199991    1.7887299861600001 V
  14.9123992410000010    7.3077413943599998    1.7247813055199999 V
   1.5116434903799998   11.1540967406100009    1.7757592632000001 V
   5.9867375961600002   10.7977019059799986    1.7868969144000000 V
   7.0587353302200002    9.1425148022700000    4.3096445215200001 V
  10.4459916276000016   10.9623011517000002    1.8377124480000002 V
  11.7349049959200009   12.4680913994699996    3.9987416289600000 V
  14.7985057587599993   10.9222064636400003    1.8146714320799999 V
   1.9309913983800000   14.6756894202000012    1.7591688035999999 V
   6.1771356421199997   14.3815037981399989    1.8132792256799999 V
   7.2941163681600001   16.1406097872299981    4.1671986033600001 V
  10.7577010326599982   14.3785968255899999    1.5860015308800000 V
  14.6136050467200000   14.4487948293899997    1.9037494382400000 V
   1.7330345182800000   21.4036082230500000    1.7707241167200001 V
   1.5794968010399999   17.9984021111099999    1.5945171933600002 V
   6.4810219181400006   17.9706028402799980    1.6519921142400000 V
   2.3117170116600003    1.6825557119399999    1.9907391347999999 O
   2.0641255493399999   21.4387933574700007    3.7685403007200002 O
   2.0306305756800000    3.3918555713399998   23.2465055846400013 O
   4.5108972548999997    3.4584360093000002    1.0943902476000000 O
   6.7904231477399994    1.9724993073900001    1.9774203602400002 O
   9.0126675259199995   21.0955983315299989    1.5517300500000002 O
   4.4958853045799998    0.1518516327600000    1.5864191928000000 O
   6.5051784719999990    0.0130275436500000    3.6938948342400000 O
   8.9833836510000005    3.7853950552200000    1.4324179615200001 O
  10.7720081965799999    1.7785719386100001    2.1385682510400001 O
  11.3281022858400000    3.4808519976299999    0.0471725935200000 O
  17.4097922297399990    3.3698702456100000    1.2059291836799999 O
  13.2861046229999999    3.3613215929999996    1.4225797029600000 O
  15.5571026003999986    1.5824912568300000    1.9439609997600003 O
   2.2374853840799998    5.4508319288099996    2.0129680303200002 O
   4.1550858408600000    7.5678616047600000    1.7136668577600001 O
   1.8696045029399999    7.2820093040099998    3.6871426331999997 O
   2.2006426750199997    7.2391799084399997   -0.0010673582400000 O
   6.5145873704400001    5.7157755603300000    2.0242449021600000 O
   6.7187816101800006    7.3730729107799995    3.7924398439200000 O
   8.9208867169799984    7.5355403766300002    1.3782379291200000 O
  10.6949926627199989    5.4409912884000002    2.0189545178400001 O
  10.8943943549399993    7.3882322343000002    3.9692500567200000 O
  13.3163047202399998    7.6569441635699995    1.8620296531200000 O
  17.3707999221599998    6.7781986614000003    1.6715526141600001 O
  15.3150965702999997    5.4266502238200003    1.8644196074400001 O
  15.7436067014999992    7.0443696813300001    3.8008394892000004 O
   2.0601258865199998    9.0387897150600001    2.0546646120000003 O
   2.0427881410800000   10.7295926157899988    3.7086986289600001 O
   2.5696335947400000   12.7694044875599992    2.2479492672000001 O
   0.0560481384600000   12.0363952092299993    1.3509738871199999 O
   6.8203237107599994    9.1827171559799989    2.2104757116000000 O
   4.4062188548400005   10.6284945704400009    1.5636798216000001 O
   6.5391139371599998   12.5900981140500008    1.9890452836800001 O
   6.2715946393799999   10.8905096962799988    3.9348393552000003 O
   8.8424263710000002   11.1458064855599996    1.3370286196800001 O
  11.1494036941199983    9.1341384147000007    2.1142510459200001 O
  11.1544957758600010   12.8793095830799995    2.2809213554399999 O
  11.1292996620599993   10.8177923162700012    0.1263659342400000 O
  13.2211937955599996   10.9987998070500002    1.3687477221600000 O
  15.7198025408399999    9.1479842172900003    1.6751723507999998 O
  14.9513915485799984   12.7414975510800002    2.4409786845600001 O
  15.5384962394400006   11.2011896959200001    0.2173698259200000 O
   0.4700396698200000   15.0841944294299992    1.2113587886400001 O
   2.4509475649799999   16.4902001527799982    1.9555627197600003 O
   2.3027133653999998   14.6234931130800003   22.8979899158400002 O
   2.3912169175800000   14.5897937646300004    3.6422439768000001 O
   4.5563559777000000   14.6155043218500005    1.2439364183999999 O
   7.1865835831800000   16.1394900644699995    2.1843486381599999 O
   6.4585920909599999   14.3195099168700004    3.6288091850400002 O
   9.2739318443999998   14.6472010892099984    0.9637316769600001 O
  11.0114065169999993   16.2015916113900005    2.0142906263999998 O
  11.2169927098799995   13.8830979711599998   23.1338992903199987 O
  12.9506967752399991   14.6456937701099985    1.6895816870400002 O
  15.8986068505199984   16.0603988779799991    2.0863141041600000 O
  15.3289984820400012   14.3007976268999997    3.8817730879200001 O
  17.5148935016399996   18.0387982629899994    1.2917587082399999 O
   2.6422970725800003   19.7516080225800010    1.8520985808000001 O
   0.1546301361600000   20.9468905357499970    1.4558534359199999 O
   2.1249486156600002   17.7800992391699992   22.9692012732000030 O
