Mg12 V24 O60
1.0
  17.6196599999999997    0.0000000000000000    0.0000000000000000
   0.0000000000000000   21.5331299999999999    0.0000000000000000
   0.0000000000000000    0.0000000000000000   23.2034400000000005
Mg V O
12 24 60
direct
   7.9087782072600001    1.9069524596700000    0.1596628706400000 Mg
  12.0610977615000010    2.4526881063900001    0.1554166411200000 Mg
  16.9312951231199982    1.9263107435400000    0.3480283965600000 Mg
   3.4155534713400000    5.2498632265199996   22.8113018640000007 Mg
  16.8311978346599993    5.0507463734100000    0.4891981255200000 Mg
  16.9592046645600014    8.9283893575499995   22.8933028209600025 Mg
   3.2340004947000001    9.4076737650899993    0.5988807864000000 Mg
   3.1018706643600003   12.4548915907799991   23.1154061486400018 Mg
  12.1090056170399993    8.7289495074900003   23.1148956729599995 Mg
  16.8525000035999994   13.2984088922700003   22.8368952583200020 Mg
  12.5715040723799998   12.8225913186599989    0.0895420749600000 Mg
  16.5821087012399992   16.3010100726000005    0.0512331955200000 Mg
   2.0314763193599998    3.3908219810999998    1.9298301047999999 V
   5.9985780076799990    3.5888406445800003    1.6852658471999999 V
   6.0250603566600001   21.4134057971999994    1.6603685560799999 V
  10.1345993764200006    3.7680824187000002    1.9769330880000000 V
  14.6687017235399999    3.4777942931700001    1.8042066806400001 V
   1.6504159325400001    6.8166352984499996    2.0010182587199998 V
   5.7820323862800000    7.2739559133900000    1.6650092440800002 V
  10.2481052261399981    7.0723627503299999    1.6985846217600002 V
  11.4878949823800003    5.7632345788500006    4.0702082241599999 V
  15.0477006101399997    7.2086674632299994    1.8141841598400001 V
   1.1441150024400000   10.6523963447399996    2.0104852622400000 V
   6.1960767766200000   10.7210008969199997    1.6899529420799999 V
  10.4102060981400015   10.5660915597000002    1.5284802031200000 V
  11.4505941621599998    9.0234796596300004    3.8662499865599997 V
  14.7874934712599995   10.6005015014400001    1.8381997202400000 V
   1.5370334204400000   14.5299101300999993    1.5561619070400001 V
   3.0027424571999997   16.1616907215000012    3.9857941094400005 V
   6.2177489584199996   14.4024985998900004    1.8209595643200003 V
   7.6509849617999999   16.3661047245899987    3.6285307437599998 V
  10.6259059758600003   14.5114993039500000    1.8144858045600001 V
  14.5449059923800004   14.5976964233400004    1.8623777047200001 V
   1.5806068396199999   21.3039098311500013    1.8006797577600002 V
   1.3602553716600001   17.8479070655399994    1.6473978331200001 V
   2.6761268197799999   19.2581978817600010    4.0067004088800005 V
   2.4469479021599998    1.4476507967699999    1.8471794515200000 O
   2.3483835241200000    3.4502103536400002   22.9311940384800010 O
   4.3729353170999996    3.4999088176800002    1.1762287804800000 O
   0.3854653018200000    3.2864724331200001    1.4100266419200000 O
  -0.0256718446200000    0.0940997781000000    1.5483191443200000 O
   2.2347895760999998    3.3652190895300000    3.7606743345600000 O
   6.5803968005400000    1.7549500950000001    2.0227598819999999 O
   6.7285076625000002   21.4621998697800009    3.7700253208800003 O
   6.2249906386799996    3.4474541129999996    3.6117314532000000 O
   8.3969485072199994    3.6788491279800000    1.6467017299200002 O
  11.1041916465600004    2.1099883424400003    2.1117218709600003 O
  13.0630044880800007    3.6785045979000004    1.1669706079200000 O
  15.6856027807800000    1.8274521437100000    1.9731045204000000 O
  13.2467070632399988    0.2447886218400000    1.5148829872800000 O
  15.5297040290999995    3.5576606723399999    0.1947000650400000 O
   2.4768484651799998    5.1887091373200001    2.1738606832800000 O
   2.5306941461400001    7.1241499279799996    4.1046885360000003 O
   2.7005300488799997    7.0575694900199997    0.2158383988800000 O
   0.1320417320400000    6.6009379352399993    1.3267726992000000 O
   4.1864488356600003    8.1521630873100008    1.9581615050399999 O
   6.1367690010600002    5.4757672933499997    2.0183744318399999 O
   6.2496757823399998    7.0508942197200000    3.6970040952000001 O
   8.6294751602400002    7.0228796175900001    1.2837303179999999 O
  11.0654988732000010    5.6341003982400002    2.1536504870399997 O
  13.4942985255600014    6.5681645113800000    1.1930512744799999 O
   8.3992566826800008    5.3736571908899995    4.3837563088800007 O
  11.1309030511199989    7.1617683060900008   23.1571955440800004 O
  15.2962963930799987    5.2977529076399996    2.1124411776000001 O
  15.7686970973400005    7.2673883087400002    0.0983361787200000 O
   1.7290524751199998    8.7751380713399989    2.0845274392799999 O
   2.3091974002800000   10.7060999709600004    3.4764089911200005 O
   2.0899559708999997   12.6539007782399988    1.9515717280800000 O
  17.1823047994800007   10.7143040934900000    1.6522473520800003 O
   2.0228955449399999   10.7688905780400006    0.1464601132800000 O
   6.8442512090400003    8.7916109157900006    2.0222494063199998 O
   4.5546821099999999   10.8234985957200003    1.5457667659200001 O
   6.8616418134600003   12.5335090484100018    1.7986610584800000 O
   6.4700624896200001   11.0562071316299999    3.5789217890399998 O
   9.1449735528599998    9.8913078648900008    0.7662704025600000 O
  11.1907922754599998    8.8220372284799993    1.7668491422400001 O
  10.8001996525799999   12.4848011083499983    2.0096963452800001 O
  11.5641000118799990   10.9225079274599999   23.0198079758400027 O
  10.3119060149999999   10.5559063892099996    3.5350904908799996 O
  13.1527942754399998   10.7751997851299990    1.7747151083999999 O
  15.7602044212199992    8.8839449772299997    2.1304238436000000 O
  15.0360011559000011   12.7439953941600006    1.8695011608000001 O
  15.2340989932799999   10.8764916286500011    3.7836457401599999 O
  17.6147969738399972   14.8681094698800003    0.9563297796000001 O
   2.5827954807599998   16.1574917611499984    1.6895584836000002 O
   2.0919469924800000   14.4673994537099997    3.8107937649599997 O
   4.5429474164399997   14.5360901384099996    1.7536695883200002 O
   6.7559238534600006   16.2912986309700010    1.8929598386399999 O
   6.8542591759200002   14.4360902826900013    3.6546810206400004 O
   8.9885814506999999   14.6091089822400004    1.4759244115200001 O
  11.2942020599999999   16.2470049825600000    2.0825087399999997 O
  12.9813021246600009   14.8155040332900008    1.3811151556800001 O
  10.9023936805799995   14.3254099944900002    3.8497291372800002 O
  15.4373065320599991   16.2246105273599994    1.9199222359199999 O
  15.0302042877600002   14.5459092456899999    3.7919061648000003 O
  15.3178980962400004   14.6565895338899992    0.0367774524000000 O
