Mg12 V24 O60
1.0
  17.6196599999999997    0.0000000000000000    0.0000000000000000
   0.0000000000000000   21.5331299999999999    0.0000000000000000
   0.0000000000000000    0.0000000000000000   23.2034400000000005
Mg V O
12 24 60
direct
   3.4981015784399996    1.6233826706999999    0.0548761356000000 Mg
  12.2702959846799988    1.4209497155700002   23.1691917225600008 Mg
   3.6334029475800000    5.3965899743400003    0.2094574528800000 Mg
   8.1861645146399997    5.2985711665800004    0.6822043394400000 Mg
  16.9195075705799987    5.4106511082300006   23.0008971722400020 Mg
   3.7869582844800003    9.3062096565299992    0.6671221034400000 Mg
  12.3456024115199998   12.7234097218799995   22.7396032344000005 Mg
  12.3688075037399994    9.1542072918600006    0.2356773400800000 Mg
   3.5093429215199996   15.6585045396599991    0.2030533034400000 Mg
  16.6840031950200007   16.4622070837800010   22.9970918080800004 Mg
   3.8641147756200001   19.9760909028300020   23.2068044988000004 Mg
   7.7620064394600004   19.5151096557899990    0.2750535777600000 Mg
   1.5403282968600001    3.7877636995200001    1.6970996016000000 V
   2.4363056275199999    1.9459704912300002    4.0891422312000003 V
   5.8871865171599991    3.6690300207000002    1.6927373548800002 V
   6.4327264300800007    0.1717267117500000    1.6685593704000001 V
  10.8537986583000006    3.7893140848800000    1.7078195908800000 V
  15.2663958300600004    4.0360837546799999    1.8300089059200000 V
   1.6772859140400000    7.4523794285699996    1.9801351627199999 V
   6.0826942645199997    7.2301144607099994    1.9421047245600001 V
  10.7187968233799999    7.3800927111599997    1.9280202364800001 V
  15.0283013644800008    7.5629951173799999    1.5161127695999999 V
   1.5877428019199999   10.7286020918100000    2.1993148569600001 V
   6.6334495967999993   10.8447948612899996    1.8296608543200001 V
   7.2594056379599996    8.8610552600399988    4.1363380281600000 V
  10.2955021115400012   10.9262977583400005    1.5481103133600000 V
  11.5183946138400000   12.6194047039799990    3.8914953292800001 V
  15.0795040964399991   10.8537957096300008    1.5622876152000000 V
   1.7982096406199999   14.4936914054399999    2.1636743731200001 V
   5.9211396019799993   14.5192081644899993    1.9523606450400000 V
   6.8151259110600000   16.3954974470400003    4.2483642364800005 V
  10.4145052951799997   14.3661937427099993    1.6648236165599999 V
  15.0835037592599992   14.7003017877900000    1.6774694913599999 V
   1.4640351690600000    0.1538542138500000    1.8771118891200000 V
   2.1933128964599997   18.2841898124700002    1.8459496692000001 V
   6.0525117869400002   17.8839965914200008    1.7461748772000001 V
   2.1394672154999999    1.9966594792500001    2.0312523410400001 O
   1.6570761640200000    0.1358309840400000    3.7900034827200004 O
   2.3766102194399998    3.6093617174699997   23.1911885836800025 O
   4.3067558741400003    3.5635607499600002    1.4054787676800000 O
   7.1717478294599992    2.0081797037999998    1.7378448422400001 O
   8.7457649162400006   21.4839913973399987    1.5291298994400000 O
   4.8787428967200004    0.7326432151200000    1.3666594125600000 O
   6.3471653611200001    0.2502580368600000    3.6466294269600001 O
   9.2284907412599999    4.1643566100900005    1.6048659276000001 O
  10.9411921718999992    1.9111944862800001    1.6863100020000001 O
  11.6404988576399990    3.8128067297100001   23.0450069116800016 O
  17.4985953161400012    4.1714840761200005    1.1372005943999999 O
  13.6202086159200011    4.2700196789999998    1.5914079323999999 O
  15.5510942963400005    2.1453888081599999    1.8110981023199999 O
   1.9500382508399998    5.5843588679399998    1.8163188763200000 O
   4.4435725340399994    7.4676248846100002    1.8218877019200002 O
   2.0001133245600000    7.0514540810999993    3.8068259767199999 O
   2.5687173724200001    7.5187230020999998    0.1634914382400000 O
   6.4933556801399996    5.4655390565999999    2.0275629940800002 O
   6.7174953749999995    7.0951448018700001    3.6893005531200003 O
   9.0851371874999991    6.8371133050800008    1.8788057402400000 O
  11.5910052327000006    5.5192857490799998    2.1646025107200000 O
  11.0613934924199988    7.2583443941399999    3.8464806556800002 O
  13.4266037918399999    7.7846786907299999    1.3764744676800000 O
   0.1571321278800000    8.1927315042300002    1.8280134100800001 O
  15.7953027839400004    5.7929072319900001    1.7391210314400001 O
  14.9095977150600003    7.4573320484699996    3.5663455245600000 O
   2.6482172783399998    9.1876051764900009    2.5836102302400001 O
   1.8905718983400002   10.6362034309800002    4.1315813229599998 O
   2.2247111305799998   12.5079922893600006    2.5454405714400004 O
  17.5109995567799999   11.4160042007999998    1.8038354256000002 O
   6.9478019508599997    8.8450992107099999    2.1296581300800002 O
   4.9032694634399991   10.5193000682099989    1.6451006925600000 O
   6.3959189603400004   12.7486896164999983    2.0652685840800000 O
   6.6260669592599992   10.8157036026599993    3.8227203331200004 O
   8.6692251131999996   10.4756093474399989    1.2872804443200001 O
  11.1578082719400005    9.2774413948499994    2.0409513789600000 O
  11.0323915320599983   12.5503910223300004    1.7452003327200001 O
  11.3254945761600005   10.8126028319399996   23.0276971454400012 O
  13.4510951192399997   10.6180940686500005    1.3067713339200000 O
  15.6943949911199994    9.1764294820199996    1.9853791401600001 O
  15.3015999107399985   12.8313983688299995    1.6238231380800001 O
  15.6449013661799992   10.9320040377899996   23.0722941571200018 O
   0.1514057383800000   14.1194025397799994    2.0036402474399999 O
   2.2774291533000000   16.2566087585400005    2.4068696277599999 O
   2.0917884155399999   14.2088080955399985    0.2400627902400000 O
   2.4508594666799999   14.3788982894100013    4.0291381353600002 O
   4.2966069499799993   14.0731924427999999    1.4736968812800000 O
   6.8401986872400000   16.1993090996100015    2.1549730831199998 O
   6.2723170454400003   14.5993975406099992    4.1628131532000001 O
   8.9868723436799982   14.9954994669600001    1.1397297693600001 O
  11.2752080665199994   16.1189043921900002    1.9603194249600002 O
  11.2594913297999994   14.2813962767699998   -0.0072394732800000 O
  13.5425940136200005   14.9801032790099988    1.2859114413600001 O
  16.0791026475599992   16.3089988638300021    1.9748447784000001 O
  15.6163046579999989   14.3667105378299986    3.5887832510400002 O
   0.8847536072400000   19.0314970891200019    1.0970354397600000 O
   2.6507016503999998   20.0699968827599982    2.0997720993600000 O
  17.4819975964200012    0.3327514578900000    1.1477349561600001 O
   2.6286065967600001   17.3956036698900007    0.0264287181600000 O
