Mg12 V24 O60
1.0
  17.6196599999999997    0.0000000000000000    0.0000000000000000
   0.0000000000000000   21.5331299999999999    0.0000000000000000
   0.0000000000000000    0.0000000000000000   23.2034400000000005
Mg V O
12 24 60
direct
   7.7759964495000000    1.9215949880700001    0.5732873920800000 Mg
  12.0126084571799989    1.9483606686600001    0.0069610320000000 Mg
  16.6527987771600010    1.2574701926100000    0.2502723038400000 Mg
   3.6256855365000003    5.5297723833900001   22.9298018320799990 Mg
  16.8471083876399987    5.1831105235199999    0.4144134384000001 Mg
  16.5192065150400005    8.7877995517800009   23.2107026767200004 Mg
   3.4831777264200001    9.1849135352399998    0.2173698259200000 Mg
   3.3989557516200000   12.6680911109099998    0.5079233016000000 Mg
  12.3863919244199998    8.6716283154300005    0.5211492624000000 Mg
  16.2653072144399999   12.4284058408800000   23.0937109322400005 Mg
  12.2205028255199988   12.8846067330599983    0.0645287666400000 Mg
  16.5044060006399995   15.8524103753100007   23.1475893199199980 Mg
   1.7323121122200000    3.6644649971400001    1.5121913882400002 V
   5.9819274289799997    3.6536122996199998    1.5665106412800001 V
   5.7915822419999996    0.0608741585100000    1.6980509426399999 V
  10.4611973941799992    3.7141419280500001    1.9479519914400001 V
  14.8944976664399995    3.2094484271100003    1.9115689975200001 V
   1.6443547695000000    7.1199725007600003    1.6554262233600001 V
   6.0776902810800006    7.3046406236399992    1.7043622783200001 V
  10.2977926673399995    6.9837969866399998    1.8456248210400001 V
  11.4546995429400003    5.4579593948400005    4.2187102401600001 V
  14.8747988865599989    6.7565363326199996    1.7824882608000001 V
   1.4703606269999998   10.8765992942999983    2.0395359691200001 V
   5.9214215165399997   10.6978958484300009    1.7870593384800000 V
  10.3412956078800011   10.7042911880399991    1.8682713784800002 V
  11.6286936854400000    8.9818345862100006    4.0083014462400000 V
  14.9985065194199993   10.4764922057700005    1.9484624671200002 V
   1.4569520657399999   14.4268956361799994    2.0118310617600001 V
   2.6932707489599998   16.1745029338500004    4.0025469931200002 V
   6.2036003714400003   14.1094972999799992    1.8124671052800001 V
   7.1938781224200001   16.2173969288100004    3.9161141791200000 V
  10.4025944050199985   14.4467922482999995    1.7430424128000002 V
  14.8160020811400006   14.0829038844299994    1.9387634292000002 V
   1.8245157930000000    0.1861754419800000    1.5932178007200002 V
   1.7631288975599999   18.3241983680099985    1.6655197197600000 V
   2.9545174477799998   19.7462893394699996    4.0847335775999998 V
   2.4018415725600000    2.1119478572700001    1.9466293953600000 O
   2.5653343977000000    3.8716998402599998   22.8894046430399989 O
   4.5646019785799998    3.9266093217599995    0.7977110637600000 O
   0.0812442522600000    3.6381730454099999    1.4560158599999999 O
   0.2523840098400000    0.1370153061900000    1.2916426910400001 O
   2.4292930028399997    3.6743917700700002    3.5891777095199999 O
   6.5654024698799995    1.8986191383600000    2.0858964422400001 O
   6.5285950001400002    0.0971790156900000    3.7453368607200002 O
   6.5719569833999998    3.6091894524300003    3.8369904487200004 O
   8.8375281055200006    3.4226048809800003    1.5463004450400002 O
  11.5451941166999994    2.0834164600200000    2.2951914710400003 O
  13.3529007540600002    3.0557234120400003    1.1331631958399999 O
  15.6129040636199985    1.2924399957299999    2.2074824678399998 O
  13.1022963298799997   21.0586905467100003    1.6828294860000002 O
  15.6059971569000009    2.9347072214399996    0.0968511585600000 O
   2.4498727657199999    5.3749491786899997    1.7895421065599999 O
   1.9755162791999998    7.3033701689699999    3.7540613541599996 O
   2.4270553060200002    7.3624355445600003   23.0738951944800021 O
  17.6168056150800005    6.7863812507999999    1.3103446636800000 O
   4.4174601979199997    7.1914409592300004    1.5875793647999998 O
   6.4209036382199995    5.5896560179199994    2.0586788071200002 O
   6.7121918573399997    7.3123064179199995    3.6743575377600002 O
   8.7057154290599996    6.6831083593199994    1.1492663832000001 O
  10.8857078625600003    5.3076796805700006    2.3052849674400000 O
  13.2362057458800013    6.9045550682399996    1.7591223967200003 O
   8.9375549153399998    5.7461588067599996    4.4096049410399996 O
  11.0055039308999998    6.8497532523900002    0.1852794684000000 O
  15.4388042031599984    4.9039119599400003    1.8895257295200001 O
  15.4754002369799988    6.8056964684099999    0.1332341524800000 O
   1.8143492491800000    8.9698190996699996    1.9882331632800001 O
   2.0079893125799999   10.6896055933799996    3.8708906745600000 O
   2.3483482848000001   12.6059034314700007    2.1867385924800002 O
  17.4759011940600004   11.0296998486000000    1.9576742328000001 O
   2.0167462835999999   10.9096095825899990    0.1938183343200000 O
   7.0300681434000003    9.1704863381399999    2.0007166139999999 O
   4.3289566457399999   10.3789040606100009    1.4008844865599999 O
   6.9140779216199997   12.3723981697499994    2.0645956843200000 O
   6.6612358006199992   10.6315953411600006    3.7373780807999997 O
   8.8184460137399991   10.7848896936300012    1.0375882264800000 O
  11.0813918065199992    8.9732644004700006    1.9967256223200001 O
  11.0437914520800007   12.8068936668899997    1.9234027519199999 O
  11.1605040799199990   11.0683087506900009    0.3679137446400000 O
  11.0688994675799997   10.8328009078799994    3.7163093572800001 O
  13.4455977853199986   10.2217983441299989    1.5901085397600001 O
  15.6318980570999990    8.5506336579600006    1.9774899705600000 O
  15.2827997335200010   12.4029967474799996    2.1670620753600001 O
  15.5602917588600000   10.5658977615299996    3.8531632464000003 O
  17.5632947076599990   14.8349053834200006    1.4706572306400001 O
   2.4068455559999999   16.1498905662599981    2.2081553675999999 O
   2.1030121389600001   14.4549963708299991    3.9666048645599998 O
   4.5805477708799991   13.7385030032099991    1.5882058576800000 O
   6.9086863056599999   16.1127028507500007    2.1124411776000001 O
   6.7244551406999999   14.3649017549100009    3.7653846328800000 O
   8.7817266422999989   14.6691002824200005    1.4351327640000000 O
  11.0715952755600000   16.4585895179399984    1.9189708948799999 O
  13.2495085891799995   14.1299107072200005    1.3785163704000001 O
  10.9073976640199994   14.5451986523999999    3.6534744417600002 O
  15.3418960731599991   15.8857005942899985    1.9316631765600001 O
  15.6018917761199987   14.3664090740100008    3.8322801503999999 O
  15.3769063375799995   14.0683905548099979   23.1245018971200018 O
