Mg12 V24 O60
1.0
  17.6196599999999997    0.0000000000000000    0.0000000000000000
   0.0000000000000000   21.5331299999999999    0.0000000000000000
   0.0000000000000000    0.0000000000000000   23.2034400000000005
Mg V O
12 24 60
direct
   8.0967623597999996    1.2868413819300000    0.7450624584000000 Mg
  12.2320084634999997    1.8739206382500000   22.9481093462399990 Mg
   3.6881824705200001    5.3054402350499998   23.0296926412800005 Mg
   8.2674440062199999    4.8946742471700002    0.5652590018400000 Mg
  12.3259917299400001    5.3475805704599999   22.8987092224800008 Mg
   3.6710737806600000    9.0335140982099986    0.1319579632800000 Mg
   7.8843221191800001    8.6984155291500009    0.0353156356800000 Mg
  12.6221958341999994   12.3998098442400000    0.8124220447200001 Mg
  12.8733993268199995    8.4336872289299993   22.9356026920799998 Mg
   4.0291757504999994   16.3566086142600007   23.1643886104799996 Mg
  12.4027077295799995   16.2352909598400004    0.1228390113600000 Mg
   3.7810380787200000   19.7822927328300011   22.9447912543199983 Mg
   1.7533852255800000    3.5316701844299998    1.8783648748799999 V
   6.0858481836600005    3.6848999375100000    1.8779008060800002 V
  10.9094063052599992    3.3895084601699996    1.8672968340000002 V
  14.8653018898199996    3.4455376644299998    1.8361810209600000 V
  14.7307053070799991   21.1457920575600014    1.8100539475199999 V
   1.5873023104199999    6.9273801860399997    1.7293987900800001 V
   5.9474809936800002    6.8076129169799993    1.6263059061600000 V
  10.7334035215200014    7.0232672139299996    1.7544120984000000 V
  14.7979947886199987    7.0606056613499995    1.7519525337600002 V
   1.3941555975000000   10.5087919007699995    1.7453627567999999 V
   6.2323556565599993   10.6599975396300000    1.5567187895999999 V
  10.4203021633199988   10.5626893251600009    1.4836511570399999 V
  15.2046917807399993   10.6671034725300000    1.7225537752800000 V
   1.6656040794600000   14.3402893873200004    1.7562219667200001 V
   6.2131678468200002   14.1133947965099988    1.5366478140000002 V
  10.4534976027599988   14.2894927336500004    1.8249737594400000 V
  11.5624085245199986   15.7784010074999994    4.1683587753599998 V
  15.3596038314599994   14.2349062491000016    1.6617143556000000 V
   1.8444964874400001   21.5325916717499979    1.7175650356800001 V
   2.0317758535800001   17.8785056432699996    1.6952201229599999 V
   5.9515335154800004   21.4017994401300022    1.9257695027999999 V
   6.4715249214000004   17.5176965169900001    1.7871753556799999 V
  11.0394922550399990   21.2016059305199995    1.6278837400799999 V
  10.5606075159000010   17.8723041018300002    2.0476803765599998 V
   0.1716507277200000    2.9855469413700000    1.6487204291999999 O
   2.4535024156800000    1.8640799978400002    2.1311431502399998 O
   4.4731735628399996    3.5854384100399996    1.3129898558399999 O
   2.5658806071600000    0.4770449620200000   23.1987993120000020 O
   6.4927742313599994    1.6385204610899999    2.2506872731200001 O
   6.5294231241600000    3.5060242265999997    4.0258896537600002 O
   9.4149243637199991   20.9823986671199982    1.1740244536800002 O
   6.9420755613600003    3.3282897715800002    0.1908714974400000 O
   9.3052595998799994    3.3308522140499996    1.7637630847199999 O
  11.0354925922200007    3.4483154381999999    3.7200451111200001 O
  11.1432015738000008    1.6519140679500002    1.8463673311200002 O
  13.1194931180399994    3.4294093500599998    1.5277376930400000 O
  13.1567939382599999   20.8274031973800007    1.2284365204800001 O
  15.3121012280999995    1.5971553183600000    1.7748775324800001 O
  15.3498073005000002    3.6710972011799998   23.1100925608800019 O
  15.6697979457599992   21.4889009509799997    0.0859919486400000 O
  15.6084991486200000    3.3828116567399995    3.9405706048800004 O
   2.2413617092799996    5.2070553640800004    2.3023149271200003 O
   4.3451138739599999    6.3899347943699993    1.5476694479999999 O
   2.3137256528999997    8.8096341456000005    2.1091462891200004 O
   6.8936567356799996    5.1462027387000004    2.1917737389600003 O
   6.1058817370799998    7.0458985335600000    3.6786501741600004 O
   6.9874814251800004    6.5247752544299997    0.0961086484800000 O
   9.0927665002799998    6.8217601833900003    1.5453026971200001 O
  11.4074964737999984    5.2737650008200001    2.1288692131199998 O
  13.0874077171799996    7.1106486554699995    1.5604545434400001 O
  11.2681954418399997    7.1945201968200001   22.9692940869600015 O
  17.5583083438800003    7.0465660605900000    1.2490411752000001 O
  15.6366025063199992    5.3988294198600002    1.8977629507200000 O
  15.2782010022599994    7.0596366704999998   23.0435915018399982 O
   1.2880500049800001   10.7174048642099997    3.9554904168000005 O
   1.8989940958200000   12.3290089127999991    2.0944817150400001 O
  17.2772923865400010   10.2135080890799994    1.1652303499200001 O
   2.1839039980199999   10.6439984240400012    0.1444414140000000 O
   6.5365414667999993    8.6195396739600003    1.8209363608800002 O
   4.5922296054600000   10.6189984601099994    1.0844591752800001 O
   6.9462161814599996   12.3101028246600013    1.8333966081600002 O
   6.1245761963399996   10.5008892420599995    3.5693851751999999 O
   9.0197153899200000    9.8444733071399995    1.1421893340000000 O
  11.4629984028000003    8.9678380517100003    2.0416474821600001 O
  10.6768972718999997   12.4368037615800002    1.9609227144000001 O
  13.5349999401599987   10.7531067937499998    1.6550085614400001 O
  10.8084985124399999   10.4801959041299995    3.6556555651200000 O
  11.2187018168999995   11.1208065216299996   23.0676998759999989 O
  15.4361964934800007    8.9247071923199996    1.9669324053599999 O
  16.0660993384800008   12.3893016767999988    2.1349949212800001 O
   0.1332751082400000   14.5919901438899995    1.4496117105600002 O
   2.5121935031400002   16.0793049661200023    2.0836457085600002 O
   2.5153826615999999   13.9506043337099985    0.1646980171200000 O
   2.4183864332999998   14.3108966648700004    3.8369672452800003 O
   4.5998060592599996   13.8569998176000002    1.5674619823200000 O
   6.9679764615599993   15.6903951051899995    2.0186296696800001 O
   9.1481803309799989   14.7802973657399992    1.1613321720000001 O
  11.2560026371199982   16.1004074335200009    2.3296949863200003 O
  11.5608051354600008   14.2402033990800003    0.2167201296000000 O
  10.3298956878599988   14.2354015110900001    3.8281963449599998 O
  13.6932068673000007   14.0206085393399995    1.7590063795199999 O
  15.3735057431999991   16.1044987282199976    1.9997652729600000 O
  15.1993001647799986   14.4209094260399997    3.6809473147200000 O
  13.4633936419199998   17.8473902704200000    1.3281649056000000 O
