Mg12 V24 O60
1.0
  17.6196599999999997    0.0000000000000000    0.0000000000000000
   0.0000000000000000   21.5331299999999999    0.0000000000000000
   0.0000000000000000    0.0000000000000000   23.2034400000000005
Mg V O
12 24 60
direct
   7.6029361489800005    1.6802732001600000   23.1096981023999994 Mg
  12.4942066239600003    1.7472412344600001   22.8764107166399988 Mg
   3.5223286109399998    5.0939418321899996   22.6763970638399996 Mg
   7.7672042391599998    5.4970204926599999   22.7845018907999979 Mg
  12.4337007115199984    5.3952333871500002   23.1558961514400004 Mg
   3.2570117706599997    9.2336430084300005    0.4678973676000000 Mg
   7.7120194640399999    8.7633594492300002   23.1465915720000019 Mg
  11.8009963405799994   12.8172080361600003    0.2453299711200000 Mg
  12.6343005406200000    9.1515802500000003    0.6340572014400000 Mg
   3.8692068573600000   16.3662985227599975   22.6010090872800014 Mg
  12.2816959046999994   15.7995896074199997   23.1741108518399983 Mg
   3.5803677709799997   19.3133011614300010   22.6550963059200008 Mg
   1.7587063628999999    3.6868163860800003    1.6427107382399999 V
   5.9575065802199996    3.6577681937099999    1.7049887712000000 V
  10.4947980857999994    3.3482294499599998    1.5183170963999999 V
  15.0503964181200001    3.3803999461799998    1.6294151671199999 V
  14.9960045277000003   21.4547924730599995    1.5717546187200002 V
   1.5300560350799999    6.9525739481399995    1.7733461054399999 V
   5.8641752411999999    7.1487622955699992    1.7875466107200000 V
  10.5200999175599996    7.2194340282299994    1.7360813808000000 V
  15.4540980680400004    7.0870268118600004    1.7310694377600002 V
   1.2474190690200000   10.9203976807200007    1.9908319485600001 V
   6.1288753933800004   10.6946012795400005    1.8450447350400001 V
  10.4952033379799996   10.4228101126800006    1.7286098731199999 V
  15.1767998589599991   10.8135072233999985    1.9129380004800001 V
   1.5197661536400000   14.4644924811600006    1.8165509107200000 V
   6.1910023145399995   14.1436919104200012    1.9984658803199999 V
  10.1868064290000007   14.1577099780499989    2.1867385924800002 V
  11.1658075975799989   16.0706917141199987    4.0455893743200004 V
  14.7252960714599990   14.4431962155899996    1.7861776077600002 V
   1.9337929243200001    0.1221574464900000    1.5701767847999999 V
   1.9408055490000000   17.9734021471799998    1.6489292601600001 V
   5.6925773724599997    0.1377043663500000    1.5976496577599999 V
   5.9206462515000000   17.8192895357700003    1.7793093895200001 V
  10.4564929449599990    0.0649008538200000    1.7809104268800000 V
  10.4040920761199995   18.2223897293700006    1.8887368125599999 V
   0.1654486074000000    3.8057007968100001    1.1378270872800000 O
   2.6352844479000002    1.9570815863100000    2.0879151415199999 O
   4.3589100677400001    4.0752309850200001    1.5426807084000000 O
   2.7133571613599998   21.4758949404599981   22.9672985911200023 O
   6.5668296623400000    1.8960997621500000    2.1427680736800001 O
   6.6136274792999998    3.6514589866200002    3.6362574892799997 O
   8.8365766438800009   21.2420020823999991    1.4000955695999999 O
   6.8248519633799996    3.7589954378399999   23.0903928403199998 O
   8.9837360442000005    2.6313915522600002    1.1337432818400002 O
  10.5957939769199996    3.6115796298600000    3.6467454441600000 O
  11.4638970054599998    1.8589981791600001    2.0374244560800001 O
  13.5185079384000009    3.2113648756799997    1.0059619377600000 O
  13.3132036600800010    0.1072565205300000    1.6229414073600001 O
  15.8976025298999986    1.6341277025699998    1.6101099050399998 O
  15.6558079357200004    3.9733146807299997   23.1785891157600012 O
  15.4324082665799995   21.1569031526399982   23.0909961297600006 O
  15.0003037247399984    3.1936861759499999    3.6371624234400000 O
   2.2780282217399996    5.4220421340000007    1.6658445679200000 O
   4.2757100332200002    7.5989769776100005    1.7373575699999999 O
   1.9237673377800000    8.9505038820599996    1.8883191506399999 O
   6.6171514113000001    5.4240231819600000    2.0953402423199998 O
   6.2286907672799998    7.0673024647800000    3.5691299373600005 O
   6.7869520747199994    7.0178623982999992   23.0525944365599997 O
   8.9594385330600002    7.3700582725800006    1.2955176655200000 O
  11.2157945729999984    5.3500353472800004    1.6097386500000002 O
  13.9335037903799996    7.2556312197599997    1.1206565416800001 O
  11.4056992684799994    7.5802000882499998   23.1635068797599999 O
  17.4846053061000006    6.9149555700300001    1.7167529152800001 O
  15.5537020060199982    5.1856729659900003    2.2182256605599999 O
  16.0734995956799978    7.0428623622300002   23.0415960060000025 O
   1.4128148174400001   10.6826073261300003    3.9736123034399999 O
   2.3641531198199996   12.5416055052899988    2.0421115509600001 O
  17.3879086120199986   11.3672101282200000    1.3619723176800000 O
   2.1390795829800000   10.8627104254500004    0.1727496108000000 O
   6.8226318862199991    8.8094834136899998    1.9869801775200000 O
   4.3925283790199998   10.5149934422100007    1.5571596549600000 O
   7.0009428454200000   12.4832076567300003    2.0841561842399998 O
   6.8165883428399994   10.7087054796899999    3.6618044767200004 O
   9.0278028138600011   10.3315957740000002    1.1397297693600001 O
  11.5609989517200002    8.8812318028499995    2.0772183556800004 O
  10.7331039872999998   12.3649907730300015    2.1583375819200001 O
  13.5135920532600000   10.4691924746999998    2.0698164583200001 O
  10.6394026354199998   10.4278919313599996    3.6658650787200000 O
  11.5291073671199999   10.9393899013800002    0.3300689340000000 O
  15.9544964120399992    8.9909431002000009    1.8506599675199999 O
  15.1476040823399991   12.5627079726899993    2.1966000544800002 O
  17.5250952847800008   14.7402026776800010    1.6350071961600001 O
   2.0463649320599999   16.2102048633900004    2.2189681706399997 O
   2.3680823039999996   14.5627050870900003    0.1251129484800000 O
   2.1485413404000000   14.4239025311099986    3.8017444233599997 O
   4.4251247500200002   13.7018105496900002    1.7765481801599998 O
   6.7413876339599996   16.0717899037500018    1.6866580536000002 O
   8.4694534081199997   13.9057077576599983    1.6404600045600000 O
  10.7315005982400002   16.0886934108000013    2.2986487836000000 O
  10.5415959027599992   14.4729980675099998    0.2572797427200000 O
  11.0307000446999997   14.2018959608100008    4.0577479768800000 O
  12.9881914117199990   14.1265946051999993    1.4515375960800001 O
  15.2999965216800007   16.3372933966500007    2.1014195436000001 O
  15.4157048288999992   14.3917105017599987    3.4929066369599999 O
  13.2458084605799993   18.8622897535800007    1.2974203475999999 O
