Mg12 V24 O60
1.0
  17.6196599999999997    0.0000000000000000    0.0000000000000000
   0.0000000000000000   21.5331299999999999    0.0000000000000000
   0.0000000000000000    0.0000000000000000   23.2034400000000005
Mg V O
12 24 60
direct
   3.2992284760199997    1.8944201780100001    0.2842653434400000 Mg
  12.1534952585399996    1.2927199264200000    0.2621756685600000 Mg
   7.8825072941999998    5.6478385351800000    0.0603057405600000 Mg
  16.6630005602999987    5.3295142743900001    0.1719838972800000 Mg
   3.2637072414600001   12.7444906561500009   23.2934925506399999 Mg
  12.3724019143799993   12.7762950891599996    0.4524438765600000 Mg
   8.0352697463999991   16.4588048492399999    0.6227107192800000 Mg
  16.3278041484600003   16.1720912232899998   22.7725985260799995 Mg
   0.8187856001999999   21.4772084613899992    6.0844524436800000 Mg
   0.7993687348799999    3.5600723829000001    5.4343616652000000 Mg
   5.1744184111800005    3.4123551111000001    5.5308879755999998 Mg
   5.1030587881800002    0.2861537645700000    5.5083806388000003 Mg
   1.3509698108400001    3.9078324324000002    1.7528806713600000 V
   5.9470228825199998   21.4595082285300016    1.8264819830399999 V
   5.9747033683799993    3.7019541764699997    1.6577697707999999 V
  10.6965079534799994    3.6206450775899999    1.9647280785600001 V
  15.0151923374400003    0.0799094454300000    1.6900689592800000 V
  14.7779083762200010    3.5448915262499998    1.7136900612000001 V
   2.2472642953799999    7.2299637287999996    1.8783648748799999 V
   5.9230777645799995    7.1825262434099999    1.6821565862400001 V
  10.0977038083799986    7.2761092263900000    1.8275493412799999 V
  14.7674951571600008    7.3017121179600002    1.5903405741600001 V
   1.8695164046400001   10.7643040213500001    1.9520822037599999 V
   5.9112021137399999   10.8661987925100014    1.9025892662400001 V
  10.2564921842999990   10.9042047669599995    1.7468013700800000 V
  14.7905945314200000   10.9947946448699998    1.7009977795200000 V
   1.4635241989199999   14.3529939340199988    1.8998512603200002 V
   6.3354482872200002   14.4706940225999983    1.6832007410399998 V
  10.2552940474199996   14.4757973744099999    2.0103692450400001 V
  15.1190954724599997   14.4073004878800006    1.5222848846399999 V
   1.5649782012000000    0.4088495393100000    1.7158711845600001 V
   1.3787736343200001   17.8077047118300023    1.6819245518399999 V
   6.0476487607800005   18.2453009796900005    1.8367611069599998 V
  10.3661921874600012   21.5151067701900018    1.9825947273600002 V
  10.5351999661799987   18.1423941514199996    1.8757892930400000 V
  14.9174032244399992   18.1164897960300024    1.7699351997600001 V
  17.3173066344000013    4.3538481540900005    1.8691067023200001 O
   1.7226565385399999    0.2226956304600000    3.7086058151999999 O
   1.7157143925000000    3.7502529870600001    3.8002594032000001 O
   2.3403137198399997    2.0950012839599998    1.9954726365600002 O
   2.1631480385400002    0.1562013250200000   22.8287044439999995 O
   4.2286655410199998    0.1031652258300000    1.6130799453600000 O
   4.2706355711399997    3.6312609106800000    1.4079615357599999 O
   6.5191332427199997    1.7365823351099998    1.7943684220800000 O
   6.3402584543999998    0.0618216162300000    3.6339139418399999 O
   6.4554381718200000    3.4770621667500001    3.5795482819199997 O
   9.0934008080400002    4.0192017807600005    1.8286631064000001 O
  10.8946938891600009   21.4118984780999995    3.9907364421600002 O
  11.0010990158999995    3.5184703757399998    3.8080093521600005 O
  11.1417920009999989    1.7349458172300001    2.1118610915999998 O
  10.8733036219199999   21.3196936154399985    0.2343547440000000 O
  13.2843074176799991   21.5188966010700007    1.3609745697600000 O
  13.1087979844199989    3.3450856129800002    1.8817293736800000 O
  15.1686067170599994    1.9366897122000002    2.0645260740000002 O
  15.5079085096800000    0.0281222677800000    3.8783621822399996 O
  15.4077936015599999    3.8502097765199998    3.6908319801600005 O
   0.5909986357200000    7.5945196196999998    1.6150290343200000 O
   2.5438736518200002    7.2569662738199998    3.9546550929600000 O
   1.9852775708399999    5.5418740024500002    2.3396724655200001 O
   4.1602836405599994    7.5490201160100003    1.6230806280000001 O
   6.5614204267199998    5.4885364394399998    1.9511076592799999 O
   6.0825533072400004    7.1125220377799998    3.6609227460000002 O
   6.5072928311999991    7.1619836373899997   23.0850096422399993 O
   8.3413584799200002    7.2520997864399996    1.4377083458400002 O
  10.5806939282999988    7.2130602217500002    3.5674824931200000 O
  11.2099977048600010    5.4467621672400002    2.0087682076799998 O
  13.1019967956599999    7.3943907094799997    1.1452289846399999 O
  15.2628014194200006    5.5837128740399997    1.8452999728800001 O
  15.1057045308599989    7.2779610755699995    3.4842285503999997 O
  15.8114071531799993    7.3729006457399997   23.1651079171200003 O
   2.7254618677799995    9.1422779378399994    2.0574026179199998 O
   2.3115584347200002   11.1854920441499992    0.1676216505600000 O
   1.7409281259600000   10.7697949694999995    3.8579199516000000 O
   2.4064226841599998   12.7767042186299999    2.0852931528000003 O
   6.6698341946999999    8.9801980683299991    1.7591688035999999 O
   4.4429206066200004   11.1186962748899987    1.2004531718400000 O
   6.7128085454399997   12.6122987710800007    2.0164253428799999 O
   6.6669093311400003   10.6873015484699998    3.7438054336800000 O
   8.6833913198400001   10.8868059979199998    1.2234013740000000 O
  10.9963945666800011    9.0168043893299998    2.0308114756800002 O
  11.2715079379199992   10.9028051135099986    0.0505834992000000 O
  11.1324007222199999   10.7320904588699992    3.6033086044800005 O
  10.7159071991400001   12.6576044765999995    1.9169289921600001 O
   0.1687434838200000   10.6447090173299994    1.7745294808800001 O
  15.5599041263399993    9.2480702055300004    2.0279574525599999 O
  13.1388042653999992   10.9539032310000000    1.3344066309600000 O
  15.5442050092799988   12.6973977008399999    2.0677049452800000 O
  15.1437982357800003   10.8253073786399980    3.7164021710400004 O
  17.3151922752000011   14.4433900137600002    1.7641807466400001 O
   2.1289835178000001   14.6063096753399986    3.6992780323199996 O
   2.4167830442400002   16.0701103196099986    2.0529939643200001 O
   4.7728487401199997   14.8394919401099994    1.7133188061600000 O
   6.6062977007399999   16.3655017969499994    2.1767147064000003 O
   6.6831898969800001   14.3436916218599997    3.8755545660000004 O
   8.7727934746800003   14.9956071326100009    1.4239487059200000 O
  10.1907003738599986   14.4706940225999983    3.8929339425600000 O
