Mg12 V24 O60
1.0
  17.6196599999999997    0.0000000000000000    0.0000000000000000
   0.0000000000000000   21.5331299999999999    0.0000000000000000
   0.0000000000000000    0.0000000000000000   23.2034400000000005
Mg V O
12 24 60
direct
   8.1345565304999994    1.6189037796599999    0.5377629254399999 Mg
  12.5693016148800005    1.1109587760899999    0.4267344650400000 Mg
   3.2780496446999998    5.0623527304799998   23.1206965329600003 Mg
   8.0498412052199999    5.3552894310000001    0.0525325881600000 Mg
  12.4683057237600003    5.1166162180799999   23.0117099752799987 Mg
   3.6593919460800000    9.1383804413099998   22.9265069435999997 Mg
   7.9947445283999992    9.0430748079299992   23.1577988335199976 Mg
  12.4027077295799995   12.7942967858400003    0.2434736959200000 Mg
  12.4411009687200007    9.0256545057600004   22.9783898354400016 Mg
   4.0125956504399998   16.9661899914299994   22.8409094534400019 Mg
  12.3250050289799997   15.8015060559900000   23.1587965814400008 Mg
   3.8719026653399999   19.8802900074600011   22.8536945488800001 Mg
   1.4677881566400000    3.6337372206300000    1.8902914430400000 V
   6.0312800966399998    3.5436856709700000    1.5382488513600001 V
  10.9811007017999991    3.6252531674099999    1.6601365216799999 V
  14.8513999780799999    3.6467216980199999    1.6601133182400001 V
  14.8447926055799986   21.3390088330499985    1.9406197044000000 V
   1.7482050455400000    7.2008294039100003    1.8145322114400002 V
   6.1745103127799998    7.1676253174500006    1.6506927216000000 V
  10.4330059381799991    7.1466735819600000    1.7304893517600002 V
  15.1042068597599997    7.4216085858000005    1.6909042831199999 V
   1.4296768320600000   11.0320900260299997    1.6393694428800001 V
   5.9806235741399991   10.7244892639799989    1.6584890774400001 V
  10.3489953992999997   10.6941060175500002    1.7286794834399999 V
  14.9041003811400010   10.6907899155300008    1.8324452671200000 V
   1.5655772696400001   14.3396003271599994    1.8552078417600000 V
   5.9261259657600007   14.1304059692100008    1.6831543341600002 V
  10.4050963967400012   14.4144925532999988    1.8287791235999999 V
  11.4693062410800000   16.0953902142300009    4.0517846928000001 V
  14.9597961264000006   14.2388037456300012    1.5379704100799998 V
   1.8422411709600000   21.5538018048000026    1.6139848795200000 V
   2.1130024861800001   17.9218087677000000    1.7591920070400000 V
   6.1123305326399997    0.0826441529400000    1.9275097608000002 V
   6.0461158503599997   17.7353964612899979    1.8937023487200002 V
  10.5939086732999996   21.2544051652800015    2.0183744318399999 V
  10.3812041377799993   17.8491990533400013    1.7119498032000000 V
  17.5278968107200015    3.6905846838299996    1.4296335487200000 O
   2.5573526917199998    1.9253848189499998    1.9333570276799998 O
   4.3915240583999999    3.7316052964800002    0.9158165733600000 O
   2.4974458477199999    0.0516795120000000   22.9847939848800031 O
   6.7507612930799992    1.9407810069000000    1.9153743616799999 O
   6.2690045493600000    3.7731211711199997    3.6008722432800000 O
   8.9496596217600004   21.1401073112399978    2.0528779471199998 O
   6.9589904349599996    3.5154126712800005   -0.0366382317600000 O
   9.2954630689200002    3.7079619197399998    1.5855142586400002 O
  11.2378015283400003    3.5406925658999997    3.7464506258400001 O
  11.5451060184000003    1.5324697958400000    2.0582611452000004 O
  13.1913989505000000    3.8525999539500000    1.2846816590400001 O
  13.2232024368000012   21.1017998729699983    1.3665665988000002 O
  15.2403011135999993    1.6552086368400001    2.0360786565600000 O
  15.3563970533400003    3.7370531783700001   23.1074009618399998 O
  15.4357912413000005   21.3625014778799986    0.0765713520000000 O
  14.9054042359799990    3.6022988508300000    3.8748352593600002 O
   2.3848562203200001    5.2939200104999999    1.9790910079199999 O
   4.5881418443399999    7.8401480336100002    1.5450706627199999 O
   1.6480901374199999    9.0328250380499995    1.9070675301600000 O
   6.5169131655599992    5.3350482888000004    1.7228322165599999 O
   6.3834971000399996    7.1334307070099996    3.6358862342400000 O
   6.9294598848000000    7.4009583141299995   23.0518983333600005 O
   8.8262162837999991    6.9432501028499995    1.3416925111200000 O
  11.3707066237199985    5.3530930517400002    1.9708073798400001 O
  13.5258024776399992    7.5185507370599991    1.3047758380799999 O
  11.2456070377199993    6.9778969090200000   23.2503109487999993 O
   0.0505860438600000    6.8889435489900004    1.6405296148800002 O
  15.5109038518800002    5.4125675567999991    1.9295516635199998 O
  15.7014957141000000    7.1894814444000001   23.1513946840799996 O
   1.8235114723799999   10.9613967602399995    3.7206716040000001 O
   2.4155496680399997   12.6225054747000005    1.8551382314400000 O
  17.3675931440400007   11.9166064070399997    1.9650529267200001 O
   2.4253109596800000   10.9172969099999992    0.0950412902400000 O
   7.0402699265399997    8.9146942868700005    1.9920153240000000 O
   4.4776665761399999   10.9787093967599994    1.1113751656800002 O
   6.5987212469399994   12.3380097611400004    1.9600177802400001 O
   6.4426462986599997   10.5978098601900008    3.7326909859200001 O
   8.7783436675799997   10.9609014982499993    1.2637985630399999 O
  10.9661063711400004    8.8658140817700009    2.0495830586400001 O
  11.0644064542800002   12.5225917515000003    1.9335890620800000 O
  13.2020059858199996   10.6335979222500008    1.4916795472800000 O
  10.8004991867999998   10.6121939910300007    3.6008954467200001 O
  11.1666004822799998   10.5888090118499996    0.1148338245600000 O
  16.0071087167999977    9.1004605993799998    2.0453368291200000 O
  15.0055015244399996   12.5613944517600000    1.5875793647999998 O
  17.5785004742399984   14.6504095255800006    1.7178898838400001 O
   2.6766377899200000   15.9394042205099993    2.0633194951200000 O
   1.8092571674400000   13.9865000614199992   23.0980035686399994 O
   2.1673943765999999   14.3337002495399997    3.6756569304000002 O
   4.4304987463199996   13.9857894681299992    1.1793612448799999 O
   6.4939723682399997   15.9077074531500013    2.1708906429600003 O
   8.8248067110000008   14.4948972607199984    1.6303201012800002 O
  11.2625042916600009   15.9617986757099999    2.0688187104000000 O
  11.0545923036599998   14.3372962822499996   23.1500952914399996 O
  10.6885086278400010   14.2049967315299988    3.7306258797600003 O
  13.3693927558199999   14.5574079371099998    0.9690220612800000 O
  15.6329023777199989   16.2447009376499985    2.0661735182399998 O
  14.9249972978999992   14.4428086192500000    3.8758562107199999 O
  13.4612088040800000   18.2016963914400023    1.3986569563200000 O
