Mg12 V24 O60
1.0
  17.6196599999999997    0.0000000000000000    0.0000000000000000
   0.0000000000000000   21.5331299999999999    0.0000000000000000
   0.0000000000000000    0.0000000000000000   23.2034400000000005
Mg V O
12 24 60
direct
   7.8489770812200002    1.8648551905199999    0.1057148726400000 Mg
  12.6602014408199999    2.2930630136999999   22.9414963658399991 Mg
  16.9152083735400005    1.5595584733800001    0.6542441942400000 Mg
   3.4991058990599999    5.1559787797199998   22.8948110445600008 Mg
  16.4982038803199984    5.5372013132399998    1.0093496399999999 Mg
  17.1696010246200004    9.0205726870799996    0.6012707407200000 Mg
   3.2427574657200000    9.2692157391899990   23.0256088358400000 Mg
   3.6329976954000003   12.3745945490100002   22.6963056153600000 Mg
  12.2992979450399993    8.6939797043700011   22.9347905716800007 Mg
  16.7863029409800006   13.1832066467700013    0.0723947328000000 Mg
  12.2604994537199996   12.5102102017500005   23.1639941520000008 Mg
  16.5997988398799983   15.9026041013399997    0.2659578292800000 Mg
   1.9521526100400000    3.5918768159100001    1.8169221657600001 V
   5.8226633222399995    3.3731002151100000    1.9248877720800002 V
   6.3443462155199999   21.3997107265199986    1.7961318835200002 V
  10.5378076758599999    3.4394222555100002    1.7763393491999999 V
  14.8539019697999990    3.3226050252599997    1.9106408599200000 V
   1.9048085836199999    7.1219104824599997    1.6841984889599999 V
   6.2669782884600007    7.1639000859599999    1.6372347264000000 V
  10.8783957036599990    6.8682071448000004    1.6042394347200002 V
  11.4703986600000007    5.1759184581000000    4.3262349811199998 V
  14.6176047095400001    7.3471039559999998    1.7397939312000001 V
   1.6897077743400000   10.9165001841900011    1.6360049440800000 V
   6.1547234346000002   10.6891964639099992    1.6261434820800003 V
  10.4484055210199998   10.6070906392199991    1.6181150918400002 V
  11.5140073185000009    8.8497288336600004    3.9353730343200000 V
  14.9963040619200001   10.6652946896100005    1.8538388388000000 V
   1.6381526491800000   14.4181101191399996    1.8898505776800001 V
   2.6984861683200001   16.1374013508599994    4.0816243166400001 V
   5.7132980926200005   14.1905049350399999    1.7047799402399999 V
   6.9711656200200007   16.0703041177800010    3.7743179572800001 V
  10.5778924023599998   14.2515082923299996    1.6004108671200001 V
  14.8210060645799988   14.2874901525600002    1.8535139906400000 V
   1.6246031306399999   21.5171954838000019    2.0901194683200002 V
   1.7008786387799999   18.1299049360200009    1.8787593333600001 V
   2.8717931440799997   19.5333051506400004    4.1400969854400005 V
   2.5411954634999998    1.7425039458599998    2.2377165501600000 O
   2.1966958711800002    3.7785044536199996   23.0631055948799997 O
   4.2166313132399997    3.5797105974600001    1.4209554621600000 O
   0.3563400038400000    3.2463777450600002    1.3479342364800000 O
  17.6366982112199970   21.3365971224900015    1.8004013164799999 O
   2.7191716491599998    3.5264376338400001    3.8307487233599997 O
   6.8736584215800001    1.7721981321300000    2.1544858108800002 O
   6.7450172839199993    0.0513565150500000    3.7543165919999999 O
   6.1140572593199991    3.4360630872300000    3.9179472508800002 O
   9.0158566843799992    3.2403700017900001    1.1834218468800000 O
  10.8798052764599991    1.6917503584500000    2.0534580331200001 O
  13.4704943648999986    2.7436868252100002    1.4378939733600000 O
  15.6558960340199995    1.5929994242700001    2.0631106641600003 O
  13.2584065174799992   21.1581090079200003    1.4770845835200002 O
  15.6563012861999997    3.7459894273200001    0.1339302556800000 O
   2.5198756749000002    5.4678861677700006    1.9589736254400001 O
   2.3245441241400000    7.0791456862799995    3.5629810257600001 O
   2.4435649274400002    7.0932929526900006    0.0499338028800000 O
   0.1705406891400000    6.8707049878800008    1.5317286847200000 O
   4.6197691340399993    7.4977712666099992    1.3999099420799999 O
   6.8797372042800005    5.1448246183800004    1.9952173987199999 O
   6.8546468084400001    6.9724490271299997    3.6382761885599999 O
   9.0833752215000008    6.4935306827999995    1.3451730271200000 O
  11.2840002768600005    5.0972148679500000    2.0431789091999999 O
  12.9240029903400000    7.5457470802500000    1.2934061524800000 O
   9.0707419252800001    5.0003588492100004    3.7849451327999999 O
  10.9917958354199996    7.2324615718800001   22.8494019124800012 O
  14.9744028245400003    5.3288467473600001    2.1430697184000000 O
  15.5162954678399991    7.0116177906000008   23.1735075624000011 O
   2.3214783033000002    8.9405986422599995    1.8879478956000002 O
   1.8475446886200000   10.8430937440199990    3.8377329587999998 O
   2.0581172452800001   12.6239912606699995    2.2842858542400002 O
  17.6014941305400008   10.8060998266799988    1.7074715392800000 O
   2.1298997401199999   10.8824993719200016   23.1194899540799987 O
   6.9678883632600002    8.9071792245000001    1.7776619452800000 O
   4.6807331576399998   10.7242093332900001    0.7795659736800000 O
   6.7879387756799998   12.4585091566199999    1.6857299160000001 O
   6.7817895143399998   10.8418017562200006    3.6756569304000002 O
   8.8265686769999991   10.6730035501499998    1.1247635505600000 O
  10.8604941290999992    8.8483722464699994    1.7442721951200002 O
  11.0262070313999985   12.5545899826799996    1.7883355276800001 O
  11.4832962511199987   10.4494896607500003   23.1349898520000004 O
  10.9879018905599981   10.6800018173999991    3.3890944464000001 O
  13.3604067292200011   11.0261899484099999    1.8238135874400001 O
  15.6635077271399989    8.7740398817100012    2.0488405485600003 O
  15.7747054014000003   12.7273933509299990    1.9843813922400000 O
  15.5880074840399985   10.7784943540200011    3.7586324318399997 O
   0.0874992315600000   14.5428946074900001    1.4439500712000000 O
   2.3312572146000003   16.1502996957300020    2.0701181030400000 O
   2.1123153194399999   14.3894064568499989    3.9502696428000004 O
   4.2999723050399998   13.4602949636100000    1.5217512055200000 O
   6.6019456447200007   15.9726083069700007    1.7221593168000000 O
   6.0459396537599996   14.2919905767300008    3.7327141893600002 O
   9.0187639282800003   14.4052979067900004    1.1733979608000000 O
  11.4896921876999993   15.8874017115600008    1.8385941787200002 O
  13.1460988046399994   14.1186919464899994    1.9614099866399999 O
  10.7725015470600010   14.2981921181699985    3.7080953395200003 O
  15.4024019856000010   15.9905023380000006    2.0922541848000002 O
  14.8894936829999995   13.8951995902200007    4.0600219140000000 O
  15.1421067484199998   14.3964047240999999   23.1620914699200000 O
