Mg12 V24 O60
1.0
  17.6196599999999997    0.0000000000000000    0.0000000000000000
   0.0000000000000000   21.5331299999999999    0.0000000000000000
   0.0000000000000000    0.0000000000000000   23.2034400000000005
Mg V O
12 24 60
direct
   3.4325035842600000    1.7576202031200001    0.4510052632800000 Mg
  12.2422983449400000    1.7576202031200001    0.4510052632800000 Mg
   7.8374714432399992    5.4736139803499997    0.4503091600800000 Mg
  16.6473014432399999    5.4736139803499997    0.4503091600800000 Mg
   3.4325035842600000   12.5242067362499991    0.4510052632800000 Mg
  12.2422983449400000   12.5242067362499991    0.4510052632800000 Mg
   7.8374714432399992   16.2402005134799978    0.4503091600800000 Mg
  16.6473014432399999   16.2402005134799978    0.4503091600800000 Mg
   0.9444313956600000    0.0889318269000000    6.2516332288800012 Mg
   1.0073159621999999    3.6149603312699998    5.7888406180800001 Mg
   5.4119666672999998    3.6158001233400001    5.7896527384800001 Mg
   5.3494344939599996    0.0902238147000000    5.3263496520000002 Mg
   1.7097765670800000    3.7261789477200002    1.7877786451200002 V
   6.2549616803400001    0.0961884917100000    1.7764785698400001 V
   6.1148325243600006    3.5048399044499998    1.7875234072799999 V
  10.5196065670799985    3.7261789477200002    1.7877786451200002 V
  15.0647916803399990    0.0961884917100000    1.7764785698400001 V
  14.9246977636799993    3.5048399044499998    1.7875234072799999 V
   1.8502933555799999    7.1347226948099998    1.7761537216800001 V
   5.8687387331399998    7.2834520237199998    1.7929066053600002 V
  10.6601057359200002    7.1347226948099998    1.7761537216800001 V
  14.6786039724599995    7.2834520237199998    1.7929066053600002 V
   1.4638765921200001   10.7141102953199994    1.7926977743999999 V
   6.2549616803400001   10.8627965579699985    1.7764785698400001 V
  10.2737065921199999   10.7141102953199994    1.7926977743999999 V
  15.0647916803399990   10.8627965579699985    1.7764785698400001 V
   1.7097765670800000   14.4927008814600011    1.7877786451200002 V
   6.1148325243600006   14.2714049044500015    1.7875234072799999 V
  10.5196065670799985   14.4927008814600011    1.7877786451200002 V
  14.9246977636799993   14.2714049044500015    1.7875234072799999 V
   1.4638765921200001   21.4806968284500002    1.7926977743999999 V
   1.8502933555799999   17.9013092279400006    1.7761537216800001 V
   5.8687387331399998   18.0499954905899997    1.7929066053600002 V
  10.2737065921199999   21.4806968284500002    1.7926977743999999 V
  10.6601057359200002   17.9013092279400006    1.7761537216800001 V
  14.6786039724599995   18.0499954905899997    1.7929066053600002 V
   0.1169769227400000    4.0865143451400003    1.5359749142400001 O
   1.7178111320400000    0.0106373662200000    3.7713943238400005 O
   2.1020078183400002    3.6311532450300001    3.7456617088799997 O
   2.0475983082600000    1.8044332277399999    2.0190937384800001 O
   2.3568938198999998    0.0392764291200000    0.0934170494400000 O
   4.6341643962600001    0.3150081587700000    1.5231898187999999 O
   4.5218038244399992    3.1454088984900004    1.5356268626400000 O
   7.0640740871999999    1.8368405883900001    2.0054037088800003 O
   6.7342516716600000    0.0432385250400000    3.7580291423999999 O
   6.5062885105800001    3.5997148752299997    3.7454064710400004 O
   8.9268069227399991    4.0865143451400003    1.5359749142400001 O
  10.5276058927200005    0.0106373662200000    3.7713943238400005 O
  10.9118025790199997    3.6311532450300001    3.7456617088799997 O
  10.8573930689400004    1.8044332277399999    2.0190937384800001 O
  11.1667062002400002    0.0392764291200000    0.0934170494400000 O
  13.4439943962599990    0.3150081587700000    1.5231898187999999 O
  13.3315985851200001    3.1454088984900004    1.5356268626400000 O
  15.8739040872000015    1.8368405883900001    2.0054037088800003 O
  15.5440992913200002    0.0432385250400000    3.7580291423999999 O
  15.3161008909199996    3.5997148752299997    3.7454064710400004 O
   0.2293903535400000    6.9171519492900000    1.5227025465600001 O
   2.3295128682599997    7.1877372608700005    3.7575650735999999 O
   2.6592119461800001    5.3938983330900001    2.0052644882399999 O
   4.3071787459799999    7.6075902296100004    1.3377479263200001 O
   6.4526718852000000    5.4264994919099996    2.0187456868800000 O
   6.1228142303399995    7.2199938896100004    3.7715103410399999 O
   6.7613859480600000    7.1916993567899992    0.0934402528800000 O
   9.0392027338799998    6.9171519492900000    1.5227025465600001 O
  11.1393076289400010    7.1877372608700005    3.7575650735999999 O
  11.4690067068600001    5.3938983330900001    2.0052644882399999 O
  13.1170087459799998    7.6075902296100004    1.3377479263200001 O
  15.2625018851999990    5.4264994919099996    2.0187456868800000 O
  14.9325913713600009    7.2199938896100004    3.7715103410399999 O
  15.5711983283999995    7.1916993567899992    0.0934402528800000 O
   2.2752266957999998    9.0145434106800000    2.0310899169600001 O
   2.3568938198999998   10.8057983628599992    0.0934170494400000 O
   1.7178111320400000   10.7772023662199992    3.7713943238400005 O
   2.0475983082600000   12.5709982277400005    2.0190937384800001 O
   6.6800712171600001    8.9830404414900009    2.0314147651200001 O
   4.6341643962600001   11.0815946919000012    1.5231898187999999 O
   7.0640740871999999   12.6034055883900002    2.0054037088800003 O
   6.7342516716600000   10.8098035250399995    3.7580291423999999 O
   8.7121466049599992   10.3904027520299991    1.3371446368800000 O
  11.0850919351199995    9.0145434106800000    2.0310899169600001 O
  11.1667062002400002   10.8057983628599992    0.0934170494400000 O
  10.5276058927200005   10.7772023662199992    3.7713943238400005 O
  10.8573930689400004   12.5709982277400005    2.0190937384800001 O
  17.5219942246200020   10.3904027520299991    1.3371446368800000 O
  15.4899012171599999    8.9830404414900009    2.0314147651200001 O
  13.4439943962599990   11.0815946919000012    1.5231898187999999 O
  15.8739040872000015   12.6034055883900002    2.0054037088800003 O
  15.5440992913200002   10.8098035250399995    3.7580291423999999 O
   0.1169769227400000   14.8531008782700003    1.5359749142400001 O
   2.1020078183400002   14.3976967118999983    3.7456617088799997 O
   2.6592119461800001   16.1605063993500018    2.0052644882399999 O
   4.5218038244399992   13.9119954316200012    1.5356268626400000 O
   6.4526718852000000   16.1931075581700021    2.0187456868800000 O
   6.5062885105800001   14.3663014083600000    3.7454064710400004 O
   8.9268069227399991   14.8531008782700003    1.5359749142400001 O
  10.9118025790199997   14.3976967118999983    3.7456617088799997 O
