Mg12 V24 O60
1.0
  17.6196599999999997    0.0000000000000000    0.0000000000000000
   0.0000000000000000   21.5331299999999999    0.0000000000000000
   0.0000000000000000    0.0000000000000000   23.2034400000000005
Mg V O
12 24 60
direct
   7.9876614250799998    1.9531840897799999    0.5432621407200000 Mg
  12.3278065549200004    1.7198295599700000   23.1289105507200006 Mg
  16.9034032013400015    1.8467673613200002    0.1556950824000000 Mg
   3.3993962431200000    5.2118141858099998    0.2218944967200000 Mg
  16.7099921935199980    5.3400009086999995    0.0865024243200000 Mg
  16.7432052526200010    9.2296809125100001   22.8646929794400009 Mg
   3.3805432069200001    9.1441728532799988    0.8447908435200001 Mg
   3.3785521853399998   12.2928978537900004    0.4645792756800001 Mg
  12.5813006033400008    8.7063181878600009    0.7593789808800000 Mg
  16.9017998122800002   12.4815065394599998    0.1785736742400000 Mg
  12.3889996340999993   12.6411100990199987   22.8265929309600004 Mg
  16.7528960656199999   16.2979954344000006    0.2503883210400000 Mg
   1.6265765325599999    3.4515669408299998    1.6043786553599999 V
   5.9466352499999999    3.6896156929799999    1.5863031755999999 V
   6.0165853002000000    0.2333760629400000    1.6018494804000001 V
  10.5745975259399998    3.4297323470099998    1.8321900292800002 V
  14.7588086647799983    3.4038495247500000    1.6679096740800001 V
   1.5683964152399998    7.0779613641300001    2.0662895354400002 V
   6.3416151682199997    7.2186157692900004    1.6326404452799999 V
  10.2589060777200007    7.0567081648199999    1.8126527327999999 V
  11.5350980515200003    5.4496045404000002    4.0216666276800002 V
  15.0223987783800013    7.2166131882000002    1.6331509209600001 V
   1.5314832275399999   10.8113969766600011    2.1597993986400001 V
   6.1258448118600004   10.8359016785999991    1.8857203653599999 V
  10.5418954369800009   10.8348034889699996    1.6863796123200001 V
  11.4172930047599994    8.9424720245699998    3.9355122549600003 V
  14.8693015526399996   10.8444072649500001    1.8157619937600000 V
   1.4827472479800001   14.4587000691899998    1.9087613812800002 V
   2.6292937634999998   16.2917938929600012    3.8754153453600000 V
   5.9950540756799997   14.4167965982100004    1.8395455197600001 V
   7.2697659980400005   16.2321901891200007    4.1208845371200002 V
  10.7791970178599996   14.4180024534899989    1.5398498887200001 V
  14.5941000831000007   14.1551044693199994    1.6917860138400000 V
   1.9289298981600000   21.4778975215499983    1.8551150279999999 V
   1.5740170867799999   18.0209903644799994    1.6526882174399999 V
   2.8330651313999997   19.6637097859199983    3.9736819137599997 V
   2.1915333108000001    1.6800578688599999    2.0170054288800001 O
   2.5201575894599997    3.3090822196200000   23.1365908893600007 O
   4.4246490192000003    3.7382159673899999    1.8656725932000002 O
   0.0591315789600000    3.5516098628099999    1.2254664801599999 O
   0.3372226727400000   21.3842068729200001    1.1902436582400000 O
   1.8135211251600001    3.3051847230900000    3.5140217673600000 O
   6.6780097169399992    1.9466164851299999    2.0245697503200000 O
   6.6441271107599995    0.1581393067200000    3.6878619398399999 O
   6.3587238580799994    3.6394004338200001    3.3990255187200002 O
   8.9786968214399998    3.2456886849000002    1.5655360968000001 O
  11.3987042634600009    1.7557898870699999    2.1655306483199999 O
  13.2877961103599986    4.0661440041599999    1.5331672980000000 O
  15.1535066684399986    1.7117115699599998    1.8978557644800000 O
  13.2082962044399999   20.9890954705500015    1.2292950477600000 O
  15.5981916475199984    3.2502967747199998   23.0454013701600005 O
   2.4061407695999999    5.2022750092200001    1.9560731954400001 O
   2.2307722936199998    6.9547703273999995    3.9467659233600001 O
   2.2492553169599998    7.2887707068299994    0.2961455047200000 O
  17.5835925559800010    6.8086895734799997    1.9867017362400001 O
   4.6685403529199991    7.6496013662399998    1.4876885556000001 O
   6.5160674218799999    5.4260903624400001    1.8420282878400001 O
   6.5641514740200000    6.9929916331499999    3.6446803379999997 O
   8.6646440015999993    6.6973417582499994    1.5860711411999999 O
  10.9042085055599998    5.3729896638599994    2.1572702236799999 O
  13.4562929189399991    7.2628448183099996    1.2564894794399999 O
   8.7635255335199993    5.1933172271399997    4.1400969854400005 O
  11.2145964361199990    7.1869620681899997    0.1970668159200000 O
  15.5085956764200006    5.3684031071699998    1.8821470356000003 O
  15.7355016579000004    7.5871552892400000    0.0846461491200000 O
   2.1636237693600000    9.0027647885699995    2.4055238282400002 O
   2.2028098932000000   10.8983046893399997    3.9054405967199997 O
   2.5500933917999999   12.5716011553799998    2.0874510727200000 O
  17.6078019688199987   11.3576063522400013    1.7079124046400000 O
   2.0943256465799998   10.4616989454600002    0.2567924704800000 O
   6.8402515462199993    9.0504391383899989    2.1582215647199998 O
   4.4903527313399998   10.6694075174399998    1.8129775809599999 O
   6.6174157062000001   12.5306020758600010    2.0562888528000003 O
   6.8646723949799995   10.6669096743599994    3.8936532492000002 O
   9.0655088862600000   11.3346089693999996    1.1698710379199999 O
  10.8389981438999996    8.8896297235499997    1.9906695244799999 O
  11.2281988136399988   12.4947924806700001    2.0659414838400001 O
  11.1682919696400003   10.7289896881499995   23.0599035201599989 O
  10.7201006782199997   10.7978957041499992    3.7907691962399999 O
  13.2705993222000007   10.5432018425099994    1.6967283465599998 O
  15.8853040072200002    9.0505898702999996    2.1219545879999999 O
  15.3864033343200006   12.5180913273299996    1.9528015104000001 O
  15.4086041059199985   10.9222925961600001    3.7003453905600003 O
  17.6017055664600015   13.9618015613100006    1.5933802248000000 O
   2.3151176060400003   16.1130904470899985    2.0079096804000001 O
   2.2071971885399999   14.4080972136899987    3.8627462671200004 O
   4.6319266994400001   13.9607895042000010    1.1298219004800001 O
   6.9999209051399998   16.1442919524600015    2.1701017260000000 O
   6.6790140375600000   14.3706080343600000    4.0109698418399997 O
   9.1480393736999996   14.9180017320899996    1.3622043520800000 O
  11.4403923790200004   16.0894040040899995    2.1195646336800000 O
  13.1598949984199987   13.5841965936300006    1.2230997292800001 O
  11.0768987932199998   14.4590015330099995    3.7673105184000000 O
  15.2420983189200001   16.2774958946400012    1.9988835422400000 O
  15.0167076281999989   14.2734936180599981    3.7342688198400000 O
  15.6107016061200010   14.1891914141099988    0.1546509276000000 O
