Mg12 V24 O60
1.0
  17.6196599999999997    0.0000000000000000    0.0000000000000000
   0.0000000000000000   21.5331299999999999    0.0000000000000000
   0.0000000000000000    0.0000000000000000   23.2034400000000005
Mg V O
12 24 60
direct
   3.2515672957200001    1.7627235549300000   23.0799976991999998 Mg
  12.2418049944599989    2.0605052097000001    0.0145485568800000 Mg
   7.5629042814599998    5.4560860125300001    0.2696703796800000 Mg
  16.6704008174999991    5.4345744156600002   23.2479906047999982 Mg
   3.7379051510400001   12.3888064148100003    0.2904606619200000 Mg
  12.1408972016400014   12.3161967004499981   22.8468031272000012 Mg
   7.7217631360199999   15.9566091913799983    0.3766614415200000 Mg
  17.0183010042000014   16.3103985172799995    0.2383921425600000 Mg
   0.9498230116199999   -0.0185615580600000    5.0805788155200000 Mg
   1.1070432377999999    3.0527087738400001    5.8825593122399997 Mg
   5.3548084902599999    3.7369455127200002    6.0801598072800003 Mg
   5.5420878563999993    0.3462096641400000    5.2257627396000004 Mg
   1.4209198610399998    3.5385392529000002    1.7395386933599999 V
   6.2701145879399993   21.4350896591099982    1.7062649604000002 V
   5.8287068656200001    3.5071654824899996    1.8323292499199999 V
  10.1723935471199987    3.9007264995000002    1.9927346306400000 V
  14.5997912332799995    0.0337854809700000    1.9607138834400002 V
  14.8437001866599996    3.8098997571600002    1.8564608275199999 V
   1.9142527213800000    6.9487841172599998    1.6701604077600001 V
   5.8502909491199997    7.2964795673700005    1.8792466056000001 V
  10.6049914394399991    7.6072456995300000    1.8680625475199999 V
  15.3621939214800012    7.3143089990100005    1.7370559252800000 V
   1.5001378523999997   10.5862896356400000    1.6637098514400002 V
   5.9398516808999995   10.9467972980999999    1.7167993221600000 V
  10.4564048466599981   10.9506086621099996    1.5086876687999999 V
  14.5566935449199981   10.8421032200399985    1.4804026754399999 V
   1.7976634311600002   14.1557073969599987    1.5757224069600000 V
   5.8779361956599994   14.2318054783800001    1.8852795000000000 V
  10.3439914158599997   14.4003022206299995    1.7425551405599999 V
  15.0293937833999998   14.6459091014100000    1.6555190371199999 V
   1.4928433131599999   21.5561919822300005    1.7620924370400000 V
   1.6213082542199999   17.9558095799699977    1.8162028591199999 V
   6.2467156794599994   18.0189016508699993    1.6212243528000001 V
  10.5560087846399995    0.2153743662600000    1.8274333240799998 V
  10.2371986566000004   18.0745001925299995    1.7258718672000002 V
  15.0980928377399994   17.9886045369600005    1.7220200961600001 V
  17.4686066548200003    3.4700423663699995    1.4638586227200001 O
   2.0266309128600000   21.4923893180400007    3.5294520549600001 O
   1.8212385362399999    3.5151973399799998    3.5337678948000004 O
   2.1769442323199999    1.7249975111700000    1.9176715022399999 O
   2.1107119303799999    0.0616708843200000    0.1260642895200000 O
   4.6443485597400000   21.5566011117000009    1.4830710710400001 O
   4.2322775713200000    3.0249741023999999    1.3305316564800000 O
   6.9086510663399991    1.8127665490500000    1.8367379035200002 O
   6.9175313749799994    0.1875535623000000    3.8091463207200000 O
   6.3509359683600000    3.6993486677400003    3.7843882502399997 O
   8.6614196038199989    4.2831979545600003    1.6548461373599999 O
  11.1889950701399989    0.1326871470600000    3.5353689321599999 O
  11.1001038854399994    3.8794517670599999    3.8302382476800001 O
  10.8139077480600001    2.0540237375700001    2.2998553624799998 O
  10.9708989186599997    0.3458651340600000   23.1887058155999988 O
  12.9730913631000000    0.1973726695800000    1.4700771446399998 O
  13.2344966388599996    3.8129789947500003    1.6028240248800001 O
  15.1930980444599992    1.8205400089799999    2.2914789206399999 O
  15.0977933035199996    0.0667527030000000    4.2112619359199996 O
  15.1375961154599992    3.7165105723499998    3.8656699005599999 O
   0.3977285851800000    7.1024875992000007    1.3123401595199999 O
   1.9491572678400000    6.9896539979999996    3.8844878904000000 O
   2.2981146341399996    5.0985068557500002    1.8787129264800000 O
   4.1487780025800003    7.8112721062800006    1.8507063744000001 O
   6.0974243002799993    5.5113830903699998    2.0933911533599998 O
   6.4761060329999998    7.3663330410899999    3.6751000478400000 O
   6.6164642445600004    7.1170655282100004    0.0553170009600000 O
   9.0457220080799985    7.2543176988299996    1.2822220944000000 O
  11.0262070313999985    7.4359065841200005    3.7124807896800003 O
  11.1488927239799995    5.7124594583099997    2.0899802476800002 O
  13.8140953545600009    6.8101968925799996    1.3996082973599999 O
  15.7291057213199998    5.4404744932800000    1.9358397957600002 O
  15.5557987455600006    7.2455106486599998    3.5868109586400001 O
  15.8576940000000004    7.4420219930400009   23.1503969361599999 O
   2.2474933509600001    8.8083852240600002    1.9937555820000001 O
   2.5157526744599998   10.5585980304600007    0.0591919754400000 O
   2.0768998028399999   10.4778057266999998    3.5643732321599999 O
   1.9365768305999997   12.5124927135299995    1.8571105238399999 O
   6.9351157956599998    9.3258048048299997    1.4374299045599999 O
   4.3373436039000000   11.0578005832499997    1.5395250405600001 O
   6.8421544694999996   12.5037071964899997    2.2410578455200003 O
   6.8965639795799998   10.8547001010899997    3.4703064864000002 O
   8.8859645508600007   11.3056038432899992    1.1110039106400000 O
  11.4755964596999984    9.2420839953900007    2.0889592963200001 O
  10.8924914316599999   10.6618063225499995   22.7679114312000017 O
  11.0687937496199993   11.1043982765699987    3.6298997467200000 O
  10.9522044593999990   12.5706967639199991    1.3609745697600000 O
  17.6140040891399998   11.0438901812699992    1.2305712369599999 O
  15.1535066684399986    9.2341598035499999    1.9133556624000001 O
  12.8881998412199987   10.8228956680799993    0.9287872963200000 O
  15.3353063203199991   12.6237974625000007    1.7741814292800000 O
  14.8955019870599994   10.9452899790000000    4.0592097936000000 O
   0.0834995687400000   14.3352075686399996    1.0327851144000000 O
   1.8811629998999999   14.2470078681600008    4.1437631289599999 O
   1.8288149900399999   15.7931081352899998    1.8984358504800001 O
   4.2467961711599997   13.7352945668400004    1.5580413856799999 O
   6.3420732793800001   16.1327932610399998    2.1092391028800002 O
   6.4119352312800002   14.1872964986699994    3.8386842998400001 O
   8.5704669188999993   14.2877916163799981    1.5094997892000002 O
  10.4702010404400010   14.3236012115700007    3.8579431550400001 O
