Mg12 V24 O60
1.0
  17.6196599999999997    0.0000000000000000    0.0000000000000000
   0.0000000000000000   21.5331299999999999    0.0000000000000000
   0.0000000000000000    0.0000000000000000   23.2034400000000005
Mg V O
12 24 60
direct
   3.2454356540400000    2.2197642391799999    0.0851334213600000 Mg
  11.9780034449400006    2.1091700835000000    0.2302245316800000 Mg
   7.9510653912600002    5.4539972989200001    0.7448304240000000 Mg
  16.5812981968799988    5.4816458378400004    0.5392015387200001 Mg
   3.7372003646399996   13.0113938024999989    0.1567624406400000 Mg
  12.5845954797599990   12.3655075681499991    0.7046884728000000 Mg
   8.3129027290200010   16.4152002609899981   23.1610937220000004 Mg
  16.4175058375200003   16.2001058254199997   22.6624053895199999 Mg
   0.9905420458799999   21.4707915886500018    5.6993449500000004 Mg
   1.0243189340999999    3.5053782326999996    5.7228036278400003 Mg
   5.3627901962400006    3.8624190612300002    5.9953744375199998 Mg
   5.1813076982399995    0.4165799329800000    5.1136901243999997 Mg
   1.6097849965800000    3.8327248749600002    1.8581546786400001 V
   6.3984033324000000   21.2963086362600009    1.8411233536800000 V
   5.8524934066199998    3.6971738216099999    1.9022412146400001 V
  10.5646071787199993    3.6569068685100001    1.8765318031200000 V
  14.8241952230400003   21.4952962905899980    1.9672804569600000 V
  14.6531083244399998    3.4422861618000002    1.7932778604000001 V
   1.7487336353400000    7.3869402465000000    1.6016638528800002 V
   6.1079960962800000    7.5789511667099996    1.5948188380800001 V
  10.8021025758600011    7.0733532743099996    1.8130239878400001 V
  14.8780937629800007    7.4117894785200003    1.6287422673600003 V
   1.6635778185599999   10.9562934084299997    1.7489592899999999 V
   6.3236078757000005   10.9466034999299993    1.7490289003200001 V
  10.4410052638199993   10.7852988231000015    1.6548693407999999 V
  15.0623954065800003   10.7633996298899994    1.7803303408800002 V
   1.7924480117999999   14.5759048957800008    1.6476994778400000 V
   6.3868976944200000   14.4930023452799990    1.8590364093600000 V
  10.7073088050600003   14.3149018270499990    2.0613007958399998 V
  15.0536912945400001   14.3728044136200008    1.8023736088800000 V
   1.5932929948199999    0.0660851759700000    1.7784972691199998 V
   1.5844303058400000   18.0990048944699993    1.8074087553600002 V
   6.3522926821799999   17.7794963115300000    1.6520617245600000 V
  10.3674079440000000    0.0922479289200000    1.7841589084800000 V
  10.8136963121399994   17.8636908498300002    1.9063946303999999 V
  14.7424928596199987   18.0358051579199987    1.6222221007200002 V
  17.6791087328399996    4.0073800923900000    1.3094861364000001 O
   1.9294584879600001   -0.0513995813100000    3.6411302116800002 O
   2.0393523073799997    3.8940727623300000    3.6817362316800004 O
   2.3449829297400000    1.9014399783900002    1.9542401236800002 O
   2.5841345749199998    0.2492459797500000    0.1171541685600000 O
   4.7910322292399998   20.7125024157000013    1.7969672073600000 O
   4.2030465553800003    3.5301628653299999    1.6660533988800001 O
   6.1747746076799999    1.6801224682500000    2.0412530236799999 O
   6.7063068908999997    0.0659129109300000    3.8873651169599999 O
   6.4603540569600000    3.6417475449899999    3.5905699159199997 O
   8.8570330691399999    3.9547746557999996    1.6185095503200000 O
  10.6237035183599993    0.3399219901800000    3.9410810805600001 O
  10.7057935142999980    3.5689009661999997    3.8600546680800001 O
  10.9214052937199995    1.9238559667200001    1.9123115076000001 O
  11.1291058457999998    0.0350344025100000   23.0160026116800012 O
  13.1912051342400005   21.3123938843699996    1.7274497011200001 O
  13.0652950438799991    3.4304860065600002    1.1813567407200001 O
  15.5137934761200000    1.7095151907000001    2.0133392853599998 O
  15.4210083465599990   21.5190903992399996    3.8785942166400003 O
  15.3633920583600005    3.7303348418100000    3.5352065080799999 O
   0.1452740967000000    7.2078061380299996    1.0632744345600000 O
   2.2360053326399996    7.4484173326500001    3.5847458524799998 O
   2.5355571722999999    5.4507457962899997    1.9760745607200001 O
   4.4735788150199998    7.6210699689899997    0.9993721607999999 O
   6.4509627781799992    5.5256380224299999    2.0501399412000003 O
   6.2035827517799991    7.4806093620000000    3.6931291207200001 O
   7.1407019885400000    7.3269920125799999   23.1768024508800004 O
   9.1145620196999992    6.6513469925700006    1.6340094482400001 O
  11.3976999428399992    7.0687882507499999    3.9581588123999998 O
  11.4976034150400004    5.3267795668800000    2.1817498528799999 O
  13.2420026140199987    7.5489555166199995    1.2235405946400000 O
  15.4921036746599992    5.6100048257699999    2.0022248376000000 O
  14.9430045904200011    7.3656224477999999    3.6803904321600003 O
  15.3541945958399992    7.0795978820099998   23.0738951944800021 O
   2.2884766801200001    9.2146723209000001    2.0507896375200003 O
   2.1440835664200000   10.7312076005400012   -0.0025523784000000 O
   1.9563813284399998   10.9214097378299986    3.7261708192800000 O
   2.4684086480400000   12.7930909305600000    1.9204559150400002 O
   6.8528319834600007    9.1349136073799997    1.7908879060800000 O
   4.8023969099399997   11.3020939430999992    1.2898560261600001 O
   7.0918250516999999   12.8053002152699982    2.0983102826400000 O
   7.0394946615000000   10.8441919336499986    3.5369699695200003 O
   8.7221017128599989   10.7629905004200008    1.2880925647200001 O
  10.9668992558399996    8.9536692521700001    1.9112673527999999 O
  11.6008017636599998   10.7815951247399990    0.0788452891200000 O
  10.6974065561400007   10.7705916953100012    3.7947137810400000 O
  11.3479948819800001   12.3497022507299992    2.2547014682400000 O
   0.0732096873000000   11.0697945366599999    1.6352392305599999 O
  15.8582049701399992    9.0318560471999998    1.8433276804800001 O
  13.4583015601800007   10.7843082991200010    1.5785532266400000 O
  15.9158036386799999   12.7132030182599998    2.1385682510400001 O
  15.1659990073800000   10.8415002924000010    3.6932219344800004 O
   0.3645155260800000   13.6113929368199997    1.2992070124799999 O
   2.0997525018599998   14.4765941002199980    3.7635051542400002 O
   2.1651038208000002   16.3501056089999999    2.2735658649600001 O
   4.7429481770999997   14.3487949736700013    1.3380263676000002 O
   7.2416978796600002   16.1752996596599985    1.9876994841600002 O
   6.6671207670599992   14.4922056194700009    3.9693660739199998 O
   9.2399787595799996   13.7534039291700001    1.9825251170400000 O
  11.0537994189600006   14.3313962046299999    3.8806593228000001 O
