Mg12 V24 O60
1.0
  17.6196599999999997    0.0000000000000000    0.0000000000000000
   0.0000000000000000   21.5331299999999999    0.0000000000000000
   0.0000000000000000    0.0000000000000000   23.2034400000000005
Mg V O
12 24 60
direct
   3.2444489530800000    1.6507297458000001    0.1301016880800000 Mg
  12.1774051371600009    1.8884985672600001    0.3841329492000000 Mg
   3.4415072305200001    5.5579592505599997   22.9628899375200000 Mg
   7.9657778073599994    5.6187257434199998   22.7799076096800022 Mg
  16.6511072897999988    5.3893548426600004    0.0752255524800000 Mg
   3.5228395810799999    8.7916755151799997   23.1820928351999989 Mg
  12.5265915590399999   12.8975912104499990   23.1119952429600026 Mg
  12.3291985080599993    9.0289706077799998    0.3294656445600000 Mg
   3.1132529647199996   16.2235984702499998    0.3502559268000000 Mg
  16.7777926451999981   16.0830086644800012   22.9146035788800013 Mg
   4.0126661290799994   20.0878047812700018    0.3464505626400000 Mg
   7.9403526379800002   19.8653029489799984   22.8526968009600004 Mg
   1.8618166132199998    3.7800979052400003    2.0434109436000001 V
   2.4882307655400000    1.8457122379499999    3.9670689333600002 V
   6.0681404253599993    3.9482931836699997    1.5782515819199998 V
   6.3008785142999999    0.2144484416700000    1.6607166076800000 V
  10.2983036374800001    3.4977770378100002    1.8912195806399998 V
  14.7997919939399996    3.5709035472900004    1.8241616390400002 V
   1.4872931202599999    7.2868327251300000    1.9844277991200001 V
   6.0224174076599999    7.5463500078900001    1.6372579298400001 V
  10.7420019155999995    7.0337753813700008    1.5457899693599999 V
  14.9991055878599990    7.0473412532699999    1.8603590054399999 V
   1.3876187036400001   10.7478957762899991    2.0592588931200000 V
   5.9695584276600000   11.0637006608699995    1.8478987581600002 V
   7.3186781742000004    9.2389401584100010    3.8685239236800002 V
  10.6003046098800002   11.0660908382999992    1.5169712968800002 V
  11.3473077152399995   12.7262951613000013    3.9020993013600003 V
  14.8811948231399995   10.6671034725300000    1.6754507920799999 V
   1.4218537030200000   14.5146000746699997    2.0063086430400001 V
   5.8718221736400000   14.5069988797800011    1.9522910347200002 V
   7.3465877156400001   16.3911908210399986    3.8392643858400000 V
  10.4302044122400002   14.4467922482999995    1.6113396873600001 V
  14.9615933317199996   14.4860902105499996    1.6296704049600002 V
   1.0045672952400000    0.1800815661900000    1.8058773283199998 V
   1.8758418625800000   18.3080915867700007    1.8482236063200002 V
   5.7100560751799998   17.8987898517300010    1.8666703411200001 V
   2.4690958147800002    2.0167283564100003    2.1198662784000000 O
   1.5717970096199998    0.0964468892700000    3.6166737859200002 O
   2.4805309741199997    3.4020407418299996    0.3539452737600000 O
   4.5178217812800003    4.4146792463400004    1.4396574348000002 O
   6.6729528745200000    2.1583517524200002    2.0859196456800002 O
   8.5477023181800007   21.4930999113299990    1.3014809496000002 O
   4.6874286284400002    0.3463388629200000    1.1500320967200002 O
   6.6214506083400000    0.4343662983600000    3.8518406503200002 O
   8.7799822959600000    4.1949551878199998    1.9715034830400000 O
  10.6660964203200006    1.6566082902900001    2.2762806674400000 O
  10.9948087972799993    3.4064335003499999    0.1743274447200000 O
   0.2547450442800000    3.9912733111499996    1.8782952645600000 O
  13.1842982275200011    3.2310676896299997    1.4047594610400000 O
  15.1585987501799995    1.9447000365600000    2.4006743092799998 O
   2.4417853417800002    5.4841006146600000    2.2693196354400000 O
   4.3882996606199995    8.0729211689099998    1.6610878627200001 O
   1.8994698266399999    7.2836027556300005    3.9231912283200003 O
   2.1162445036199999    7.1797269365099998    0.1089633542400000 O
   6.8534134322399991    5.9449095966599996    2.0449655740799999 O
   6.3945622465200005    7.6816641968100008    3.5447663253599999 O
   9.0298466944199998    7.1065573607700001    1.1488255178400000 O
  11.4570077183999999    5.2171974683100002    1.8901290189600002 O
  10.9731013761599989    7.1372636041500002    3.4435065132000005 O
  13.3253083664999998    6.8838186640499996    1.8825182906400000 O
  17.6399049893399997    6.9874791518699997    1.4002115868000000 O
  15.6098030034599997    5.2385798664000003    2.0200682829600001 O
  15.5304969138000004    7.2315141141600003    3.8080557590400002 O
   1.8934262832600000    9.0218000754899990    2.3284652040000000 O
   2.0123413686000000   10.8807982546499993    3.9126336631199998 O
   1.9546898410799998   12.6093917985299999    2.1349485144000000 O
  17.3324066830200003   10.9612029620700007    1.7077731840000001 O
   6.8486032650600004    9.1713261302099998    1.7051976021599999 O
   4.5214690508999995   11.5756077603600005    1.4517696304800001 O
   6.9407364671999998   12.9607048144799997    2.1792438813600001 O
   6.5456155916999998   10.8995105446200000    3.6468614613600003 O
   9.1158482548800013   11.9388931965899996    0.9675834480000001 O
  11.2079009653199986    9.1016449215299993    1.8641643695999999 O
  11.4885997687799986   12.7826904287699996    1.8498942540000001 O
  11.4181035091199998   10.8970988340599995   22.9969061805599999 O
  13.3722999997199992   10.3525044432300000    1.1312373103200000 O
  15.6731985401399996    8.9103661277399997    1.8681321578400001 O
  15.4786070150999997   12.5321955274799990    2.0837617257600001 O
  15.4616040431999995   10.7180939243700006   23.1428094112800018 O
  17.4049996822199979   14.5150953366599982    1.8819614080800000 O
   1.8277401907800002   16.4318023042199997    1.9750304059200001 O
   2.1558887386199999   14.4268956361799994    0.1553702342400000 O
   1.9490163105600000   14.5486008869399992    3.8128588711200000 O
   4.2006150422999999   14.3765942444999997    1.7657353771199999 O
   6.5064294678600003   16.2720910790100000    2.0106244828800004 O
   6.5811368262599999   14.5694018905200000    3.8625142327200002 O
   9.0111874744799998   15.0731909999999996    1.3077226749599999 O
  11.2569012397799995   16.1063936436600024    1.7884283414400002 O
  11.0678070486600006   14.4268956361799994   22.9557896848799992 O
  13.3314928671599997   14.4087001413299998    1.2296430993600000 O
  15.4191935215800004   16.3510100004600005    1.7991947375999999 O
  15.1162939465199990   14.6714904598500002    3.5919621223200000 O
   0.6861800390400000   19.7494977758399983    1.3936218098400002 O
   3.0103717699799999   19.6457080892399993    2.1354821935200001 O
  17.4994058205000016    1.1552093582400000    1.2124725537600001 O
   2.1331417575599998   17.8462920807900005    0.0323455953600000 O
