Mg12 V24 O60
1.0
  17.6196599999999997    0.0000000000000000    0.0000000000000000
   0.0000000000000000   21.5331299999999999    0.0000000000000000
   0.0000000000000000    0.0000000000000000   23.2034400000000005
Mg V O
12 24 60
direct
   8.0036953156799999    1.8857853928799999   22.9818007411200007 Mg
  16.5170040575399995    1.8717888583800000    0.1124438702400000 Mg
  11.8900989611999996    5.8555901734200004    0.1746754963200000 Mg
   3.5194566063599999   12.8388057655499992   23.0040064332000007 Mg
   7.8978540180599994    9.3551113947599998    0.0042926364000000 Mg
  16.8895012895999983   12.8947057710300008    0.5321476929600000 Mg
   8.2383539475600003   16.1372075526900005    0.1153675036800000 Mg
  12.4414005029399988   16.2973925067599978   22.9479933290399991 Mg
  16.9214985921599990   16.0591068901799972    0.5200819041600000 Mg
   7.9436651340599997   20.0656041242400001   23.0964953450400010 Mg
   0.7043635281599999    3.1239619010100004    6.1838791840800003 Mg
   5.1317259750000002    3.5329191059700000    6.1528097779200008 Mg
   1.9823527072800000    3.4566487595100002    1.6109684323200002 V
   1.7354660313599999    0.0154823204700000    1.7546905396799999 V
   6.0727039172999993   21.5081085029400008    1.7792397792000001 V
   5.8837859227799996    3.4766315041499998    2.0346168398400000 V
  10.3775921074799999    3.3452794111499999    1.9285539156000000 V
  10.4197911931800000    0.0949395701700000    1.6941063578400002 V
  11.6773944256799993    1.5485119776900000    3.9130977319199998 V
  15.0952032134999996    3.5038493804700002    1.6593476047200000 V
   1.7190445082399999    7.1032197256199998    1.8139753288800000 V
   6.2559660009600000    7.3622848126500005    1.7310230308800001 V
   7.2027760507199998    5.4932091286500002    4.0059811022399998 V
  10.2041970334199998    7.0891370586000004    1.8906162912000000 V
  14.8029987720600005    7.1755495092899997    1.5791565160800001 V
   2.1725745566399999   11.0250917587799986    1.6415041593600002 V
   5.8980578473800005   10.8166079941200000    1.8403576401599999 V
  10.6622024754599991   10.8233047975500014    1.9663987262400000 V
  14.6425012891200002   10.7604065248200005    1.7920944849600000 V
  15.4564943417999991    8.8732430116199996    3.9444919862400001 V
   1.7689962443400000   14.5015940641499999    1.9506667939200002 V
   6.2147359965599991   14.4414089658000009    1.7090261697600000 V
  10.9365053423400003   14.0737953704399992    1.8375500239200000 V
  14.8029987720600005   14.4518094675900013    1.8657654069599998 V
   1.6568471084400000   18.0853098237900021    1.9643800269600000 V
   6.1257214742399997   18.0777086288999982    1.7861079974400000 V
   0.3839323914000000    3.3823163947499997    1.3756855507200001 O
   2.3151528453600001    3.4988321611799997    3.4597257177599996 O
   2.3725753172999999    1.5157385538299999    1.3713929143200001 O
   4.5892342632599998   21.1286947523399995    1.5124002192000001 O
   4.2360481785599999    2.8239623338500004    1.4952296735999999 O
   6.6743976866399990    1.7169010542900001    2.0920685572800002 O
   6.7402071167400006    3.7555070707800002    3.5780400583200000 O
   6.8908728294000001    0.1702409257800000   23.1881025261600016 O
   8.7778679367599999    3.4815410577899999    1.3897932422399999 O
  10.7950018528800005   21.5111016080100015    3.6214304911199999 O
  11.1290001278399995    3.5164462615200001    3.8562261004800003 O
  11.4914012947199993    1.7545409655299999    2.0207411827200001 O
  13.4630060094000008    3.6036769711500001    1.4486835729600001 O
  15.7112922450599992    1.6010312817600001    2.0531331849600001 O
  15.7556056899599994    3.8006405112599997   23.1491903572800020 O
  15.6758062498200008    0.2158911613800000   23.1457098412799986 O
   1.8037245942000000    7.1493867563399993    4.1878496649599999 O
   2.2932516079799998    5.3734203264600007    1.9276489814400000 O
   4.5826973693999999    7.5727711584000001    1.2421265500800001 O
   6.4688995920599996    5.4556122836699998    1.8451607522400000 O
   6.5168074476000006    7.1801360659800002    3.6573030093600001 O
   6.8978854540799999    7.5955747430700002   22.9566018052799983 O
   8.7680361664799999    6.7921090633799999    1.0743888823199998 O
  11.0640012021000000    7.0902137151000000    3.6425456215200005 O
  10.9323999615599998    5.3913789568799997    1.9125899488800000 O
   0.1953491704200000    7.4758720733999997    1.3973111568000001 O
  13.2214052314800004    7.0074403633799998    1.3120153113599999 O
  15.4625026458599990    5.4361894004100000    1.7087245250400001 O
  15.2443007764200011    6.9855842364300003    3.4854815361599996 O
   2.2775524909199998    8.9498363550299995    2.0928574742400001 O
   2.2343667042600002   10.8792909355499994    3.6917137108799998 O
   2.6876148381000000   12.8383966360799988    1.9943588714400000 O
   6.9569113150800002    9.1765156145399995    2.0797243272000001 O
   4.3140151740599997   10.9691056207800006    1.4457367360800000 O
   6.7161739004999994   12.6883107199800005    1.8983894435999999 O
   6.5175827126400003   10.9253072343600017    3.6629414452800000 O
   9.0093021708599998   10.7610094524599997    1.4716085716800003 O
  11.1406995820799999    8.8567701671699997    2.3646625704000002 O
  11.3492987368199998   12.5273936394899987    2.3872859244000000 O
  12.9801039877799997   10.6820905310099992    1.5224241052800001 O
   0.6466415220000000   11.6233897758300007    1.4937910603200002 O
  15.4395970878599993    8.9367011457299999    1.9818058104000000 O
  15.7019009662800002   12.5506063536300001    2.0591196724800001 O
  14.8530914654399986   10.9761900205500016    3.7286071804800001 O
   0.1160607004200000   14.4718998778800003    1.8621920772000002 O
   2.6247126518999999   16.1532928008000027    2.2257203716800000 O
   2.0344892812199999   14.4793934071199999    0.0525093847200000 O
   4.6116464707800002   14.3481059135100004    1.2129366225600000 O
   6.8685839594999996   16.1780989665600003    1.8502887124799998 O
   9.2531758849200010   13.7677019274900001    1.5964198754400001 O
   7.0523570133000000   14.2478907264899988   23.1307900293599999 O
  11.0113007990400007   16.0818028091999992    1.9681621876800000 O
  11.6467009779600001   14.4329033794499999   23.1245947108800003 O
  13.1807919151800004   14.8017012969599993    1.7924657399999999 O
  15.6357039036599996   16.0037021466899994    2.2543070097600002 O
  15.2262053856000001   14.2040923400699999    3.8494274925599998 O
   1.6915049796600001   20.5538032476000012   23.1513946840799996 O
   0.2080881846000000   17.7215075924400018    1.4029031858400001 O
   2.0754726103799999   17.9623987177499984    3.9383894815199998 O
   2.3989695679800001   19.6932101740199990    2.2207084286400001 O
