Mg12 V24 O60
1.0
  17.6196599999999997    0.0000000000000000    0.0000000000000000
   0.0000000000000000   21.5331299999999999    0.0000000000000000
   0.0000000000000000    0.0000000000000000   23.2034400000000005
Mg V O
12 24 60
direct
   3.7688805133200001    1.6790027454900001   22.8678950541600017 Mg
  12.5063994286800000    1.4473493329500000   23.1742964793599988 Mg
   3.7418167155599997    5.5951900323299997   23.1328087286400006 Mg
   7.6115169234000000    5.2066677677400000    0.0892868371200000 Mg
  16.4862048918600017    5.6608014794399999   23.1152901314400019 Mg
   3.6140918002199998    9.0864640648799995   23.1170071860000022 Mg
  12.2461041915000006   12.2074974602099999   22.8264073034399999 Mg
  12.0932007820200003    9.0526139845200007   23.0783966618399994 Mg
   3.4951238559000002   16.1979094461600006   23.0970058207199997 Mg
  16.7472049154400011   16.1485985784599997    0.1542564691200000 Mg
   3.4850101710599999   19.9257033786300006    0.2375568187200000 Mg
   7.9887186046799998   19.5954928300800013    0.1247881003200000 Mg
   1.5474466394999999    3.6039353687099998    1.7116713619200001 V
   2.5689111886800000    1.7284858782299999    4.0041712339200002 V
   6.3742643981999993    3.3703009082099999    1.5567651964800000 V
   6.2199337962600003   21.5062997200199995    1.7229018268800000 V
  10.4312087328600001    3.4854600874500004    1.6618535762400002 V
  15.1110080485200005    3.6866225879100001    1.7602593652800000 V
   1.9332643345200000    7.1812557887400006    1.5647239763999998 V
   5.9000312493000004    6.9774447132900006    1.8250433697600001 V
  10.5341075472599996    7.1617898392199999    1.5888555540000000 V
  15.1716020592599996    7.5244508146800007    1.6958002089599999 V
   1.8064380218400000   10.9362029981400006    1.7684965864800000 V
   6.2044108757999998   10.6118925272099993    1.8833304110400000 V
   7.4069526707999991    8.9255900506499994    3.6928970863199999 V
  10.2736008741600013   10.6795926879300005    1.9424991830400000 V
  11.5895956599000005   12.6694907643600008    3.9437494761600003 V
  14.6247054325200008   10.8039895799399996    1.7310926412000001 V
   1.7921484775799998   14.5350996144300009    2.0592588931200000 V
   5.8787114606999999   14.3369948184300000    2.0128984200000000 V
   6.6868371666000002   16.1638009682400003    4.2195223605600001 V
  10.5184084301999992   14.4130067673299997    1.7974544796000003 V
  14.6910082130999999   14.4810083918699988    1.7405364412800000 V
   1.3240822096800000    0.0145348627500000    1.6974940600799999 V
   1.8489542614200001   18.0116019198000004    1.7035037510400000 V
   5.8404767985000001   18.0105898626900007    1.6087176986400000 V
   1.9543726872000000    1.7829646971299999    1.8603590054399999 O
   1.4862359406599999    0.0301033157400000    3.6410838048000000 O
   2.3124746570400001    3.7034184293100001   23.1810950872799992 O
   4.7852529807600002    2.9348579533499999    1.2371146070400001 O
   7.2116915986799999    1.7376374584800001    1.9714338727200000 O
   8.7590853792000001   20.8873083650399991    1.4354576121600000 O
   4.4878683592800002   21.5005934405700003    1.3519020247200000 O
   6.5218995293399997   -0.0062015414400000    3.5529803431200002 O
   8.7862020359400006    3.9251235357900001    1.4363857497600001 O
   9.7670708884800010    1.6623576360000001    2.0379581352000002 O
  11.4819923962799990    3.3605464003200001    0.1598949050400000 O
  17.4132985420799997    3.9493698401699997    1.6397406979200000 O
  13.5552977884800008    3.5499302786700002    1.2899024330400000 O
  15.9177065619600011    1.8749111622299999    2.0748980116800002 O
   2.4783637559400002    5.2186617211499993    1.8498478471200002 O
   4.2390435207600001    6.6801367873800004    1.8671576133600001 O
   2.1268162996199997    7.0275953730599996    3.5110749304800004 O
   2.5639248249000000    7.0543610536499992   22.9395008699999998 O
   6.5802558432599998    5.2698244380299997    2.1043895839199998 O
   6.8591045824199997    7.2081291349800001    3.4869897597600001 O
   8.9089053481800011    6.8168506297500002    1.3703487595200001 O
  11.3719928588999988    5.3127184329899997    2.0291408280000001 O
  10.9637981956800008    7.0320096647099994    4.0586993179199995 O
  13.5653057553600007    7.2442401939900005    1.7519989406400001 O
   0.3139118625600000    7.3181203630199994    1.0313697045600001 O
  15.6924039695400008    5.5721280500999999    2.0378653214400000 O
  15.2762980789800000    7.4044466811899996    3.6975377743199997 O
   2.3339530225799998    9.0015804664200001    1.9124507282399998 O
   2.1050736391800000   10.8135933559199984    3.6387402573599998 O
   2.4452740344599997   12.6211058212499996    2.2428677138399999 O
   0.1492032808800000   11.1930071065200014    1.3886098668000000 O
   6.8421016105199994    8.7178384124099999    1.8826575112800001 O
   4.5484623700200002   10.3309928463599991    1.9354221338399999 O
   6.4969148514599997   12.3872990957099987    1.9233099381600001 O
   6.5158736056199995   10.5873016927499997    3.7413690724799999 O
   8.6203305566999990   10.6946012795400005    1.6194608913599999 O
  11.1267976703400002    8.8922352322799991    1.9800887558400000 O
  10.7027981720999996   12.5667992673899995    2.2060670580000004 O
  10.7488031043599985   10.9930935275999992    0.0148269981600000 O
  13.1919980189399997   10.3868928518400008    1.2478113928800001 O
  15.7935936769199987    9.3463043445900009    1.9395291427199999 O
  14.9292964949399991   12.4624066531499995    2.1097495785600002 O
  15.3132993649799989   10.7357080247100001    0.0691462512000000 O
   0.2430632097000000   14.6068910698499987    1.5873473304000001 O
   2.6830337264999997   16.1692919163899980    2.0801651925600000 O
   2.5371077023800002   14.5248067782900012    0.1101467296800000 O
   2.2246582716000001   14.5144062765000008    4.0317369206400002 O
   4.3043772200400001   13.8739894571699995    2.3228963784000003 O
   6.4346117336999997   16.0658036936100004    2.3612516647200001 O
   6.6897267908400000   14.1565902552900003    3.9806661492000002 O
   8.8937524405799984   14.8709949092999985    1.5403603644000001 O
  11.2398982678799992   16.2448086033000010    2.1587088369600003 O
  11.2909952818799990   14.4434976794100010    0.0677540448000000 O
  13.2893994994200000   15.2439056546400007    1.3534102483199999 O
  15.8425939513799996   16.3133916223500002    2.0384686108799999 O
  14.8180988206799995   14.5874035872000007    3.6334498730400004 O
   0.5179122860399999   17.5168997911800020    0.9591373958400000 O
   2.2205176514999998   19.7476028604000007    2.0239896643200002 O
  17.2850978959199999   21.1266921712499993    1.1858118012000001 O
   2.4462783550799996   18.2321011710000001   22.9307067662400001 O
