Mg12 V24 O60
1.0
  17.6196599999999997    0.0000000000000000    0.0000000000000000
   0.0000000000000000   21.5331299999999999    0.0000000000000000
   0.0000000000000000    0.0000000000000000   23.2034400000000005
Mg V O
12 24 60
direct
   2.9522092723200002    1.7269785591300000    0.1849546202400000 Mg
  12.2341933013399995    1.6413197679900000    0.1628649453600000 Mg
   3.5127963748799997    5.6221279779600000    0.0798198336000000 Mg
   7.8697154210399995    5.9772523579200003    0.2421743032800000 Mg
  16.8017025238200013    5.5893330209699998    0.6563325038400000 Mg
   3.6927283427999997    9.2897152789500002    0.1429795972800000 Mg
  12.2822949731399991   12.7037930404499999   22.5868085819999997 Mg
  12.3508002112199993    9.0207234189900003    0.0819313466400000 Mg
   3.3519641183999997   15.9400071481500003    0.2010346041600000 Mg
  17.2628971243199985   16.6240070226000007   22.5805900600800022 Mg
   4.0418266663800004   20.4757025850900014    0.4237180178400000 Mg
   7.9044261512400000   19.6279001907299993   22.9194066909600025 Mg
   1.8251324810999998    3.7363210519500001    1.8724944045600003 V
   2.4170649587999997    1.8030120411599999    3.9758862405600000 V
   6.2149826717999996    3.9042794659500002    1.6486044120000001 V
   5.8370938237800001    0.4564592897400001    1.7065898085600002 V
  10.2629938388399999    3.5321223801600001    1.7480775592800000 V
  14.8681915140599994    3.7449127708200001    1.9182283847999999 V
   1.6124984242200000    7.5297694977900003    1.9859592261600001 V
   5.9940673747200002    7.7096787989400006    1.8581082717599999 V
  10.4724915962399994    7.2269275574699998    1.7712113889600001 V
  14.6962060128000012    7.1964366453899995    1.8097058959200003 V
   1.3742630013599999   11.2798932860700010    2.1239268804000000 V
   6.2295188912999997   10.9879901757900011    1.6364922163200000 V
   7.1670257605799996    9.4366142918099989    4.1973398719199997 V
  10.1705963417999996   11.1377961612000007    1.4581273730400000 V
  11.3377930988399989   13.0020914903399998    3.5483396551199999 V
  14.6558922307199992   10.7500921555500000    1.8215396503200001 V
   1.1173331192400000   14.5226965315500003    2.1256671383999999 V
   5.8353670970999998   14.6085060546000012    1.7882427139199999 V
   6.8170640736600001   16.5984041310300015    4.0478633114399996 V
  10.6398078875999982   14.7635015243399987    1.4989190205600000 V
  14.6392064126999983   14.5863053975699994    1.5035133016800000 V
   1.5432883997400000   21.3668942364000003    1.9166041440000001 V
   1.8121115523600000   18.2839960143000013    1.8636306904800000 V
   5.6925949921199992   18.1717007413499978    1.6130799453600000 V
   1.9703713384799999    1.6974351047699998    1.9657258264800002 O
   1.7597811621600001   21.4437029111100017    3.6937092067199999 O
   2.5004059506000003    3.6831772871099999   -0.0203494168800000 O
   4.5267197095800000    4.1588225956800002    1.3352651582400001 O
   6.8531843766599998    1.9964656810800001    1.8198225957600001 O
   8.6348667761999991   21.2657961910500006    1.6711581556800001 O
   4.3071435066600001    0.8396413380900000    1.1024186378400000 O
   6.4345412550600001    0.1751289462900000    3.6663059440800003 O
   8.8718688228599998    4.2899593573799999    1.2299679475200000 O
  10.9469009417399992    1.8106132360499998    1.8069214831200000 O
  11.2980960048599997    3.3699563781299999    0.0164048320800000 O
   0.2542340741400000    3.9381295463099999    1.6616447452799998 O
  13.2907914525599988    4.2859757283299995    2.1337187320800002 O
  15.5067984710999998    1.9665776966400002    2.1548802693600000 O
   2.4523923770999998    5.7498194388599995    2.0260547704800000 O
   4.3746620437799999    8.0339031373500003    1.7279601767999999 O
   1.9128431485800002    7.4466516159899996    3.7614168446400003 O
   2.2373796661200003    7.7230078064100001    0.1577369851200000 O
   6.6555975094199997    5.8846598989200007    1.8594540712800001 O
   6.4522313937000000    7.6304799468000004    3.7118310933600003 O
   8.9314232736600001    7.2486975518999994    1.3701631320000001 O
  10.7144976263399982    5.4636656742899996    2.2466034676800000 O
  11.1241018623599999    7.3251616965300004    3.7090002736799996 O
  13.0217921033399993    7.1002696868099999    1.9082044987200002 O
  17.4936970506599998    7.3048344218099999    1.5465788863200001 O
  15.4961033374799992    5.4787819315500004    2.2819423068000000 O
  15.4700967193199990    7.2682711670699991    3.6979786396800005 O
   1.8693930670199999    9.3867866289900004    2.4311868328799999 O
   1.6690575328200001   11.0045060864999993    3.8999413814400001 O
   2.2675621437000002   12.9158082384299995    2.4027858223200003 O
  17.2615932694800023   11.3199018416099992    2.2351409683200001 O
   6.7963081141799995    9.4766443804799998    1.9707841764000000 O
   4.4287896392999997   10.9419092775899998    1.3260069856800001 O
   6.3850476301199999   12.9082070435400009    2.1518870256000002 O
   7.1050750360200006   11.1539029424400002    3.7084201876799998 O
   8.7000066592199996   11.5534932358500004    1.1563202289600001 O
  10.8093971150999995    9.1268386836299999    2.1269897344799999 O
  11.2250977534800001   12.9115016124299995    1.5445601870400001 O
  11.0111950810800003   10.8045925075800007   22.9256020094399986 O
  13.2586003337399987    9.9937840305600005    1.3580509363200000 O
  15.5665995971399997    9.1025923792499999    1.8017703194399999 O
  14.6392064126999983   12.6723977369099998    1.7198853796800000 O
  15.2974945299599998   10.8324994440599998    0.0221592852000000 O
  17.2428988102199980   13.7481067791899996    2.1873882888000002 O
   1.9247716584000001   16.2153943477200002    2.3158193292000000 O
   1.8871713039600000   14.3799103465199991    0.5457449088000000 O
   2.0788908244199997   14.5526060491199996    4.1400737820000000 O
   4.1801057580599998   14.5888032406499999    1.4510967307200000 O
   6.4647765916199997   16.4145973333499988    1.9623149208000001 O
   6.1608550762800007   14.8779070440299996    3.7287928080000001 O
   8.8785819133199997   15.0597973931400020    1.1962301457600002 O
  11.0305062284400002   16.4883913698600004    2.0010878690400000 O
  11.1950914724999997   14.5611977679900004   23.0308064064000000 O
  13.2793034342399991   15.4739010161700019    1.2417784984800000 O
  15.4838929131000000   16.3843002194400000    1.9577206396800002 O
  15.1061978813400000   14.5102934486699997    3.4682413802399998 O
   0.5523411016800001   19.3226896061100000    1.4826998160000000 O
   2.7693348211800002   20.0207075481899999    2.2146523307999999 O
  17.5620084724799987    0.4892973129900000    1.4812844061600001 O
   1.8988707582000000   17.3532049369200010    0.1055988554400000 O
