Mg12 V24 O60
1.0
  17.6196599999999997    0.0000000000000000    0.0000000000000000
   0.0000000000000000   21.5331299999999999    0.0000000000000000
   0.0000000000000000    0.0000000000000000   23.2034400000000005
Mg V O
12 24 60
direct
   7.9613376530400002    1.4124656623500000    0.0037821607200000 Mg
  12.2641995823199998    1.7999328035700000   22.8546922967999997 Mg
   3.4430049016199997    5.4753796970099993   22.8469887547200017 Mg
   7.9861461343199993    4.9903459437600004    0.4832580448800000 Mg
  12.3888939161400007    4.8434469308999999   22.8491930815199993 Mg
   3.2212438608600000    8.6939581712400003   22.8768979888799997 Mg
   7.9068048053400002    8.9910938321099998    0.0589367376000000 Mg
  12.0884082344999992   12.8149039912500005   22.9415891796000011 Mg
  12.1879945528199993    8.7263655318900000    0.2460260743200000 Mg
   3.5160031530000002   16.2771944308199998    0.3275397590400000 Mg
  12.4782079726799999   16.3538093073600024    0.3318091920000000 Mg
   3.2162222577600001   19.7620946568899996    0.0986378234400000 Mg
   1.4655856991400000    3.7602874256400001    1.7334361886399998 V
   5.8940581845599995    3.5478415650599997    1.9433809137600000 V
  10.6601938342200011    3.6930179275199997    1.8963707443200000 V
  14.6003022034199983    3.3863861563199995    1.8453927866400002 V
  14.6996947054799989   21.3521009760900000    1.8820078149600001 V
   1.3368212238599999    6.9842276492400002    1.6615751349600001 V
   5.8284778100399999    7.2763030245599998    1.6881198703200000 V
  10.4357017461599995    6.9374576908800005    1.8598253263200002 V
  14.7297009864599993    7.2202953534300010    1.9365823058399998 V
   1.3348830612599998   10.9009101980699992    1.6670975536799999 V
   6.0575333900399997   10.7986062974400010    1.7350372260000000 V
  10.4056073668800000   10.7865046783800000    1.7555722704000001 V
  14.7505979032199992   10.8422970182099991    1.7346659709600001 V
   1.4685281823600000   14.2610905351800010    1.6546373064000000 V
   5.9445208907999998   14.4830971054799988    1.6784208324000001 V
  10.3729933762200002   14.2961895370799983    1.8086153342400000 V
  11.2006064260800002   16.0936029644400023    3.7985423486399998 V
  14.7834057101400003   14.3206942390199998    1.7491913243999999 V
   1.6756472856600000    0.2248704765900000    1.8559735552800001 V
   1.4999792754599999   17.9900041904100014    1.9115225906400000 V
   5.8397543924399997    0.1420540586100000    1.7543192846400002 V
   5.8299050024999994   18.2134965466800018    1.9199222359199999 V
  10.4668004460600006   21.4269932022300011    1.9295748669599999 V
  10.3132979681399988   18.1333071705599984    1.6897209076799999 V
  17.4682014026399983    3.2754690036900000    1.5086644653599999 O
   2.2751562171599997    2.0605267428300000    2.0193953832000000 O
   4.2900876757799997    3.3325963975799997    1.6084392573600002 O
   2.2527968686199999    0.0368216523000000   23.2301007525600021 O
   6.7845381812999994    1.8049069566000000    2.1033686325600001 O
   6.1563268236600006    3.7053348778799999    3.8244373876800002 O
   8.9440565698800008   21.4957915525799983    1.4202361555200000 O
   6.6942198041400003    3.4018900099200002    0.2303637523200000 O
   8.9612885973600012    3.5830482326099999    1.6052835895199999 O
  11.2234062661200014    3.7382375005200004    3.8903815641600001 O
  10.8836992213199988    1.6699588308900000    2.2930335511199997 O
  12.9554012244599992    3.1434278505300002    1.2736600250400001 O
  13.1721054227999996   20.6190055652399984    1.5920112218400002 O
  15.0842085456599992    1.5920734996800001    1.9525926794400001 O
  15.3360992050200000    3.3311321447400002    0.0147805912800000 O
  15.5648023918199989   21.3190906877999993    0.2208735453600000 O
  14.5945053352800009    3.5039785792500000    4.0126404895199999 O
   2.2804773544799999    5.4187260319799995    2.0869405970399999 O
   4.2963250354199998    7.2558250179300003    1.0494219808800000 O
   1.4885264964600000    8.9870886699299994    2.0587484174399999 O
   6.3035038436400006    5.4645700657499994    2.0759885733600001 O
   6.4438972945200002    7.2172591821000003    3.6895557909600005 O
   6.8815344096000004    7.1324401830299999    0.2579062356000000 O
   9.0771554815199984    6.1853485262400003    1.4635337745600001 O
  11.4708039121800009    5.3801386630199994    2.3360063220000002 O
  13.0913016620400011    7.6486969747800000    1.6787920874400000 O
  11.1892946043600006    6.7060196096399993    0.0890548027200000 O
  17.5392967307399985    6.3829365271200000    1.2574176170400000 O
  15.0000041905200003    5.2876538696699997    2.0154275949600002 O
  15.3464948044199989    7.1551576351800001    0.1194745125600000 O
   1.9099359046800000   10.7767932367500006    3.5068287009599999 O
   2.1848202203399998   12.4882033428900012    1.8795018434400002 O
  17.3589066516599999   11.5040962356300014    1.5800846536800002 O
   2.1238033377600001   10.4172976314000003   23.1575900025600028 O
   6.7721515603200002    8.9114643173700010    1.8704989087200001 O
   4.3743625095600001   10.6312938773399992    1.3298355532800001 O
   6.3957251440799991   12.8264026826700004    2.3698369375200001 O
   6.4556496077399999   10.6775039743200004    3.7828568232000004 O
   8.8291059080400007   10.9081022634900009    1.4432539680000001 O
  10.8127977094799981    8.7341820580800000    1.7852726736000000 O
  11.2838064606000010   12.5360068914900005    1.9517805590399999 O
  13.0137927776999991   10.7553031730100006    1.6290439120800002 O
  10.9486981470600000   10.6649932257899991    3.6818754523200004 O
  11.0511917092799994   10.8171893886300001   23.0841975218400002 O
  15.6866071013999999    9.0130791578400000    1.8814509324000002 O
  15.2582026881599990   12.3848012526300000    2.1651361898400001 O
  17.4884992509600004   14.3321067979199981    1.1395673452800001 O
   2.1441188057400002   16.2332022462300003    2.0304402206400001 O
   2.1003868096199998   14.7942077677199997   23.2049946304800017 O
   1.9893829516199999   14.3739026032500004    3.5592684753600001 O
   4.3641254870999999   14.2900095287699997    1.4724670989600002 O
   6.4755774431999997   16.4035939039200009    1.8543029075999999 O
   8.8487165896199986   13.6986021133199998    1.4171500980000000 O
  10.9353072054600009   16.1633918387700000    1.8325148774400002 O
  11.1063060057600005   14.4083986775100001    0.0388657620000000 O
  10.9861927835400000   14.1346049295600000    3.7726241061600003 O
  13.2609085091999983   14.7787039141200012    1.2143056255200000 O
  15.5588998057199994   15.9156101118599995    2.0097891590399999 O
  15.1190954724599997   14.1208021932300003    3.6641712276000002 O
  13.7222969259600003   17.4600953942399997    1.3942947096000000 O
