Mg12 V24 O60
1.0
  17.6196599999999997    0.0000000000000000    0.0000000000000000
   0.0000000000000000   21.5331299999999999    0.0000000000000000
   0.0000000000000000    0.0000000000000000   23.2034400000000005
Mg V O
12 24 60
direct
   8.2138978594799994    2.1357419659199999   22.9812902654400020 Mg
  12.4273928732400005    2.1485541782699999   22.4235955850400011 Mg
  16.7684013664199973    1.8944201780100001   22.7945953872000011 Mg
   3.7218184014599998    5.4627828159599998    0.3237575983200000 Mg
  16.5491951763600014    5.2809785993700000    0.0606769956000000 Mg
  16.3263945756600002    8.9159001421500008   23.1739948346400020 Mg
   3.3252879531600001    9.1481349491999993    0.4369207752000000 Mg
   3.3895292335199998   12.4337029908600005    0.8559516981599999 Mg
  12.1370032567799999    9.5286253563000010    0.2401788074400000 Mg
  16.8723925997399995   12.6594993920399990   22.5274077756000004 Mg
  12.4189001971199993   12.4737976789200005   23.1633908625600000 Mg
  17.0590024187999987   15.9333964772400005    0.2531959372800000 Mg
   1.6594371984600000    3.6652832560799999    1.7343875296800000 V
   6.6031966405800002    3.7447835720400002    1.8268996449599999 V
   6.1762370394599992    0.1500643829700000    1.8607070570399999 V
  10.5054932194199999    3.4868597408999999    1.7512100236799999 V
  14.7430038297600010    3.5061318922500000    1.8186392203200001 V
   1.8688116182400001    7.0948002717900005    1.8504743400000001 V
   6.3165776313599995    7.1448001996500006    1.7831379571200001 V
  10.7722020128399993    7.3620694813499998    1.7510475996000001 V
  11.3278027516200002    5.3840146264199999    4.0288364906399998 V
  14.5477075183200011    7.0060407099300006    1.6822493999999999 V
   1.3064449300200001   10.4789900488499992    2.0151491536799999 V
   6.0447415168799994   10.8331023717000008    1.7672203972799998 V
  10.1701029913200003   10.8396915094799997    1.9052808652800002 V
  11.6366930110799984    9.2562097286699991    3.9222630907200000 V
  15.1285043709000000   10.9480031533800002    1.9064874441600002 V
   1.6624677799800001   14.4195097725900006    1.8603590054399999 V
   2.6007146749800003   16.0249984122600004    4.2446052792000000 V
   5.8854245511599999   14.4417104296200005    1.5626124633600000 V
   7.0322882205599999   16.1813935354500025    4.0737119436000002 V
  10.3066024973400001   14.4835923674699991    1.9546113787199999 V
  14.8426077677400006   14.4146002189499995    1.7891940549600001 V
   1.6773563926800001    0.1365415773300000    1.6692554736000000 V
   1.5531025503600000   17.8330061395800001    1.7765481801599998 V
   2.6163961723800000   19.7305916877000023    3.9455825479200000 V
   2.1880974770999999    1.8735545750400000    2.0820910780800004 O
   2.3675360945399997    3.2881735503900003    0.1224445528800000 O
   4.9675107438000001    3.6465494329800001    1.9384849879200001 O
  -0.0180777711600000    3.7196113430700000    1.4219996169600000 O
   0.0794470469400000    0.2093020236000000    1.4050611057600000 O
   1.5803425447199999    3.6970230897000000    3.8426056812000002 O
   6.9923092120200003    1.8878741064900000    2.2000805704799999 O
   6.3267265555199996    0.0749137592700000    3.7375405048800001 O
   7.0955427999599996    3.6935777888999999    3.8103761030400003 O
   8.9542054940400000    3.3208608417300001    1.1595919139999999 O
  11.1631998879000012    1.8880463715300000    1.9757033056800000 O
  13.2572083805999998    3.1544528130900003    1.4400750967200000 O
  15.5898927876599984    1.8945493767900001    2.0087682076799998 O
  13.6612976630400009   21.4084101110399985    1.0659892370400001 O
  15.6118997430000004    3.6219370653899996    0.0216256060800000 O
   2.6676165240000000    5.3457287212800004    2.0901890786399999 O
   1.9964131959600000    7.1268415692300007    3.7864765598400001 O
   2.4927590181599997    7.4046620124899993   23.2053890889600005 O
   0.2772101107800000    6.5846158227000000    1.5359285073600002 O
   4.6861247735999996    6.8376085670700002    1.4512127479200001 O
   7.2071985853799996    5.5653451141499994    2.0972893312799998 O
   6.1664405084999991    7.2282410783999991    3.7946673741599999 O
   9.1574658918000011    7.4117894785200003    1.6531058793600000 O
  10.7523975149999984    5.3385581889900005    1.9543793443199999 O
  12.9213952806599988    6.6922599395699995    1.5001488028800001 O
   8.7757711972199992    5.9125668353999998    4.4423449948800000 O
  11.3233978366199999    7.6374782140499997   23.1032939529600014 O
  15.5692073068200010    5.3357804152199995    2.0336422953600000 O
  15.6056976226799993    7.1363376795599995    0.1535835693600000 O
   2.4953138688599998    8.9726399397000005    2.0750372323199997 O
   1.6268055881399999   10.7248983934499993    3.8174067453600000 O
   1.8434040685200002   12.5251972602300015    2.0856412044000003 O
  17.2538053797599993   10.0561009087799995    2.0895857892000000 O
   1.9656492696000001   10.7939982076199996    0.1961618817600000 O
   6.6364977979799997    9.0934623321299988    2.1170354587200002 O
   4.2383034950400003   10.7901007110900000    1.2050010460800000 O
   6.6710851905600004   12.7630091479499992    1.8597093091199999 O
   6.4786961230199998   11.0090926431899998    3.7745267882400002 O
   8.5951520625600004   10.4593087680300005    1.4491708452000001 O
  11.2905019313999997    9.2596334963399993    2.0068887290399999 O
  10.8410948834400003   12.5119974515399992    2.1933051660000000 O
  10.5683954056199987   10.9736060449500012   23.1122968876799995 O
  10.5939967716000005   10.8807982546499993    3.9244210106400002 O
  13.4406995198399990   10.7947088009099996    1.5913383220800001 O
  15.2326013221800007    8.8019683513200011    1.9315703628000001 O
  15.9327008926199998   12.7573028685000001    2.0571705835200000 O
  15.7371931452599991   10.8946009909800008    3.6304334258399997 O
   0.1496966313600000   14.7667099607100010    1.4104211004000000 O
   1.8581341042799999   16.1554030475399983    2.5371569433599999 O
   2.2132935909000002   14.3063101081799999    3.5715198916799999 O
   4.2660016005600001   13.9478911593300001    1.5074578864799999 O
   6.5463379977599994   16.3035079156800009    2.0681226071999999 O
   5.7952823705999998   14.5697033543400014    3.6864929368799997 O
   8.6914963634400006   15.0265933066800006    1.7978721415199999 O
  11.3526993312000002   16.0386934829400012    2.0755013011200001 O
  13.3426989709199990   13.9475035629900006    1.4378707699200002 O
  10.6515073418399986   14.3093032132500007    3.8311199784000003 O
  15.7732077302999993   16.0790035023000009    1.9706449557600001 O
  15.6940954568999995   14.4461031881399986    3.6745895721600004 O
  15.7744939654799996   14.4534029192099993    0.0887763614400000 O
