Mg12 V24 O60
1.0
  17.6196599999999997    0.0000000000000000    0.0000000000000000
   0.0000000000000000   21.5331299999999999    0.0000000000000000
   0.0000000000000000    0.0000000000000000   23.2034400000000005
Mg V O
12 24 60
direct
   8.4923061071399992    1.7957984426100000   22.6576022774400023 Mg
  16.9958006983800018    1.4530125461399999   23.1136890940800015 Mg
  12.7004976032399988    5.7884068078199995    0.3648740940000000 Mg
   3.4947714626999997   12.9456100903500015   23.0571887176800026 Mg
   7.8769571012999995    9.4976391822299995    0.0909342813600000 Mg
  16.8613979318999974   12.5194048482599989   23.1167055412800018 Mg
   7.8166978641000000   16.5850966566900020   22.8665028477599996 Mg
  12.3142041774000006   16.4884990355099994   23.1423917493599980 Mg
  16.7818980259799986   15.9321044894400003   22.9876016011200015 Mg
   7.7981443621199995   19.8566035644599985   22.6917113342400008 Mg
   0.9966384482400000    3.5535047782500002    5.4999577900799999 Mg
   5.4080551027799997    3.1283115932699999    6.0335905032000001 Mg
   1.8303126611400000    3.9159719555399999    2.0738306534399999 V
   1.8868189107600000    0.0916665344100000    1.7727196125600000 V
   6.8650424078400007   21.4749044164799976    1.7361045842400000 V
   6.1683258121200000    3.5552058955199999    1.7668723456800002 V
  10.6395083533800001    3.8308299595199999    1.6503214665600001 V
  10.3615934561999996    0.2430229051800000    1.8334198116000000 V
  11.6055062128799999    1.8627234106499999    3.8235788603999996 V
  15.1816981244400004    3.7440083793599999    1.5833795421599999 V
   2.1756932364599999    7.4760658715700004    1.5011929576800001 V
   6.4296429895799996    7.4424311225100004    1.8406128780000002 V
   6.6850752006000000    5.4727741882799998    4.1053150288799998 V
  10.3621925246399993    7.0971689160900002    1.9197830152800002 V
  14.8026992378399989    7.2596794482000000    1.9641015856800002 V
   2.1485061010800002   10.9470987619199995    1.5903869810400002 V
   5.7424057709399996   10.7790972816599986    1.8797106744000001 V
  10.2370048403400009   10.9880978414399983    1.8253914213600002 V
  14.9239048789799984   10.7725081438800014    1.8985982745599999 V
  16.3316980933200000    9.0385528506299995    3.9622194143999998 V
   1.9558879779599998   14.6437988546699991    1.8063646005600000 V
   5.9929044771599997   14.5481917574699988    1.7333433748800002 V
  10.4437010717999996   14.2757976629700014    1.7064273844800000 V
  15.0287947149600001   14.2473093319799986    1.6804859385600002 V
   1.5860513145599999   18.0825105168900002    1.9103392152000001 V
   6.4420648498799995   18.0609989200200012    1.7370791287200000 V
   0.2652287419800000    4.2820351655400000    2.0207179792800001 O
   2.3238040984200001    3.9332630589299997    3.9773248538400003 O
   2.0888283126600000    2.0574259721100003    2.2994377005600004 O
   5.2632919762199997   21.0940048799099991    1.8909411393600000 O
   4.5194075506799996    3.2993061785999998    1.1648822983200000 O
   6.4888979061600001    1.7692696264500001    2.2001965876800003 O
   6.3668641409999998    3.5538277751999998    3.7605815207999997 O
   6.7227812729999998    0.2809858133700000   22.9331895343200003 O
   8.9611124007599994    3.7971952104600000    1.3275384127200001 O
  10.6976003724000002    0.2175707455200000    3.6616420526400000 O
  11.1497032283399999    3.7741547613600002    3.5886904372799999 O
  11.1621074689800004    1.8837182124000000    1.8551614348799998 O
  13.6174070899800004    3.7693098071100000    1.2786487646400000 O
  15.8825024812799995    1.8718749908999999    1.7719074921600000 O
  16.2763018822799985    3.7460109604500000    0.0767337760800000 O
  15.6441084814799982   21.3730096453199998    0.0935794735200000 O
   2.0020338675000002    7.3169575739999999    3.7071207950399998 O
   2.7228717777600000    5.5776620645100001    2.1612380119200001 O
   4.6402784182799994    7.1729009343000003    1.5188043686400001 O
   6.7029767751599998    5.4950825109599997    2.0558015805599998 O
   6.6564256334399996    7.6249674655199993    3.6774203918399997 O
   6.9822307664999999    7.7653634731199999   23.1122040739200010 O
   8.7437034160199989    6.6801798536400003    1.3997939248800000 O
  10.6930016411399986    7.0559975715299998    3.9169262995200005 O
  11.4166058380200006    5.5871581748399999    1.9216856973600001 O
   0.6210753953400000    7.1220396812399995    1.1254596537599999 O
  13.2172998506999981    7.4011521123000001    1.4907050028000000 O
  15.8178030897599999    5.7845523775499998    2.1544162005600000 O
  15.5516052664799993    7.3284993316800007    3.9975582535199998 O
   2.5012869335999999    9.2151245166300004    2.1628390492800000 O
   1.7422319808000000   10.9109015703900010    3.6912496420800003 O
   1.8663272461800000   12.7153993975200006    1.3028267491200001 O
   6.9559774730999999    9.3970148657400010    1.9127059660800001 O
   4.0516408170000000   11.3079940207200007    1.6125926731200002 O
   6.4295548912800005   12.7841977478699995    2.2204995976799999 O
   5.9836717753200004   10.8512978665500004    3.9348625586400003 O
   8.5824130483799994   11.4619989664799995    1.4632785367199999 O
  10.6044980889599980    8.9427519552600003    2.0955954801600001 O
  11.3084916042600003   12.5248096638900002    1.9650297232800000 O
  13.2988083978599985   10.4312080333800008    1.4336709472800000 O
   0.2765053243800000   10.5765997271399996    1.2021702264000000 O
  15.7062001633200001    9.0677517749100005    2.2363243437600002 O
  15.6000064725000005   12.4730009531099988    2.0081185113599997 O
  15.6305061039599984   10.8562935527100013    3.8480352861599996 O
   0.3956670849600000   15.0277991619599991    1.1873200248000000 O
   2.4456969063000003   16.4481028836299998    2.2514993935200001 O
   2.4889179322799997   14.6894921565300010   22.8032966772000023 O
   4.2869689959599997   14.5486008869399992    1.5873473304000001 O
   6.7424976725399999   16.3557903553199999    2.0861980869600001 O
   8.7137147546999998   14.1295015777499984    1.5213103401599999 O
   6.4780265759400004   15.0546079088100004   23.2142063961600016 O
  11.2058042257799997   16.1434952266499998    1.9547505993600001 O
  11.1812071804199995   14.4186053811299999   -0.0024131577600000 O
  13.4337926131199996   13.8750015142800009    1.5192452340000002 O
  15.4185063548399999   16.0193997984600003    2.0255210913599999 O
  15.6554026835399984   14.2916029803900013    3.7357538400000001 O
   2.8098247998599999   21.4738923593700015    0.1577833920000000 O
  -0.0002819145600000   18.3959898234299999    1.3546400306400002 O
   2.2215395917800000   18.1274932254600003    3.8511677505600002 O
   2.6019304315200000   19.6808932236600000    2.2165782163200003 O
