Mg12 V24 O60
1.0
  17.6196599999999997    0.0000000000000000    0.0000000000000000
   0.0000000000000000   21.5331299999999999    0.0000000000000000
   0.0000000000000000    0.0000000000000000   23.2034400000000005
Mg V O
12 24 60
direct
   7.8435678456000000    1.6822327149900000   22.7629923019200007 Mg
  12.3953074723800007    1.7371421964899998   23.2058995646399993 Mg
   3.4118533427400002    5.4795140579700004   23.1093036439200006 Mg
   7.9250763927600003    5.2311940028099997    0.1435364798400000 Mg
  12.6402031267199995    5.6619427353299994   23.0619918297600002 Mg
   3.5468904169800002    8.9082128147400006    0.2533351579200000 Mg
   7.2506662865999996    8.6151469154400004    0.0436920775200000 Mg
  12.2880037429799991   12.5444048121900007    0.4681061985600000 Mg
  12.4080993455400002    9.1764725482799996   -0.0597720614400000 Mg
   3.7618502689800000   16.6687098004799985    0.4092158678400000 Mg
  12.6137912563799990   16.0347959864099998    0.3239896327200000 Mg
   3.5046560919599998   19.9654966028700009    0.2815969478400000 Mg
   1.4396143203000000    3.6347492777400001    1.5614058844800001 V
   5.8230685744199997    3.5861920695900000    1.8036497980799999 V
  10.4404942936799987    3.5522989229699999    1.8711021981600000 V
  14.6346076814400003    3.4408003758299999    1.6284638260800000 V
  14.7584034125999999   21.4539096147300015    1.7823722436000000 V
   1.2826231497000000    7.2297914637599998    1.6806947695200001 V
   6.0503621884200003    6.8242795595999999    1.9852399195199999 V
  10.5542996776199995    6.9958340063100000    1.9286235259200000 V
  15.2429969215799996    7.4073321206099996    1.6117109423999998 V
   1.8157412023200001   11.0284078607999980    1.7417430201600002 V
   6.4264009721400006   10.5523964890199995    1.6041234175200001 V
  10.5389000947800007   10.6643041656299999    1.8653941519200001 V
  14.7914931340799995   10.7863970127299993    1.9598785595999999 V
   1.9672878979799999   14.4290058829200003    1.7291435522400000 V
   6.1003139245199991   14.5501943385599990    1.8520521739200000 V
  10.4734078185600001   14.2245057473100012    1.8175254552000000 V
  11.1679043371199995   16.2614106465299990    4.0641289228800002 V
  15.0268917916800007   14.2990103771100010    1.9112209459200000 V
   1.5831440706600000    0.1467698140800000    1.7035501579199999 V
   1.6893730008000001   18.1900900343699981    1.8834928351200000 V
   6.1297563763799996    0.3250856636100000    1.7757824666400002 V
   6.5104291306799995   18.0984019668300000    1.5136300015199999 V
  10.3205925073800007    0.1353141889200000    1.8664151032799998 V
  10.2558931158599993   17.9536993332300021    1.7262895291200002 V
  17.4072021397199990    3.4811319283200000    1.2735208044000002 O
   2.4591407068800000    1.9258585478100001    1.9722691965600001 O
   4.3157242810799996    3.3782896994399998    1.5409404503999999 O
   2.4156377663399997   21.5443918269900010    0.0698655578400000 O
   6.7623374096999997    2.0691399948300000    2.0868709867200002 O
   6.2764576655399997    3.7275786011700003    3.7605583173599997 O
   8.8066584611999996    0.0990523980000000    1.2324043087200001 O
   6.6832956149399996    3.5821438411500002    0.2131700032800000 O
   8.8633761467400003    3.8545594687799998    2.0435269608000000 O
  10.9612081056600008    3.5421998850000000    3.9361155444000002 O
  11.1929947329600008    1.7216598760199999    2.1370600274400000 O
  13.0150966325400006    3.2760934644600002    1.3134307212000000 O
  13.1650046998199990   21.3480096813899998    1.3248700171200001 O
  15.3797959618199993    1.6097091331500000    1.7105111899200001 O
  15.5430949706999986    3.4725402094500000   23.1916062455999992 O
  15.2928077004000009   21.4154945108099994   23.0199936033599997 O
  15.3168056773199996    3.5529664500000000    3.3798130704000005 O
   2.1809262754800001    5.5106724970799998    1.8579690511200002 O
   4.5399344545799991    6.7340557449000000    1.2393421372800000 O
   1.9969241661000001    8.8739536049099996    2.0878687346400002 O
   6.8811115377599998    5.2769088377999998    2.0633426985600001 O
   6.4590854414400001    7.3647826557300000    3.5940968388000001 O
   6.8345780157000000    6.8825482093800003    0.0104183445600000 O
   9.1821862747799994    6.6054168262799990    1.1385695973600001 O
  11.4801951909600000    5.3172188571600003    1.9939644129600000 O
  13.6451932937999985    7.5925385717400005    1.1169903981600000 O
  11.1529981047600000    7.1199940338899994   23.0935949150400006 O
  17.3536031340000001    6.8830650044999997    1.3614386385599999 O
  15.3889053260399997    5.3725374681300000    1.8027448639200001 O
  15.8832072676799996    7.3598515689599999   23.1160094380799990 O
   2.2570079673599999   10.9385070430500004    3.7173303086399998 O
   2.8302636054599999   12.7104037113599997    1.9017539424000001 O
   0.3576790980000000   11.5596086447699999    1.1693373588000000 O
   2.6775187729200001   10.6826073261300003    0.0590759582400000 O
   7.0481459145599992    8.6436998458200005    2.0036402474399999 O
   5.1102828487799998    9.7559721428400010    0.9617361811200000 O
   6.6017165891399996   12.5543961845099989    1.8310994676000001 O
   6.8250633993000003   10.7708931591300008    3.4854583327200004 O
   8.9152308061200003   11.0677919555699997    1.8697563986400001 O
  11.1602926439999983    8.8015161555900008    2.0689115241599998 O
  11.3494925530799993   12.6118035090900005    2.1498451228800000 O
  13.1126038309799995   10.6964100624600000    1.4304456691200000 O
  11.0666970100799986   10.7460008608499997    3.7025033104799996 O
  10.9920953696399994   10.9422107414099994    0.1227461976000000 O
  15.7938051128399994    9.1351074055499986    2.1258991728000001 O
  15.3985961390400004   12.4950939444900015    2.0808612957600001 O
   0.3050315539200000   14.4748068504299994    1.9297604944800002 O
   2.4272138829599998   16.4892957613200011    1.9930594788000000 O
   2.4205360318199998   14.5577094009300012   23.2346950336800013 O
   2.9678202910800002   14.5846904128199988    3.9269501856000000 O
   4.4026596835200005   14.7905040693600007    1.5587606923200001 O
   6.7439424846599998   16.3428058779300009    1.9469774469600001 O
   8.8054250849999995   14.2032956142600000    1.4540667710399999 O
  10.7788974836399998   16.1870998149000016    2.0653381944000002 O
  11.3216006312999991   14.0250012978599994    0.1220500944000000 O
  10.7701052733000004   14.2667968146300002    3.7878455628000003 O
  13.3659040631400003   14.5715982697800008    1.7012066104799999 O
  15.9519944203200001   15.8880907717200017    2.0051020641600004 O
  15.4185944531400008   14.4888895174500014    3.6916905074399997 O
  13.5946072499399992   17.5777093503000010    1.4755299530399999 O
