Mg12 V24 O60
1.0
  17.6196599999999997    0.0000000000000000    0.0000000000000000
   0.0000000000000000   21.5331299999999999    0.0000000000000000
   0.0000000000000000    0.0000000000000000   23.2034400000000005
Mg V O
12 24 60
direct
   3.5039689252199997    1.7094505913100000    0.6275370348000000 Mg
  12.6726937797599994    1.7108071785000001    0.4807056664800000 Mg
   3.8112205562999999    5.6487859928999997   22.9401969731999991 Mg
   8.2698050406599997    6.0728379219900006   22.9663008431999991 Mg
  16.6825936222200006    5.3156684717999996   23.1361964308800019 Mg
   3.3711871674600000    8.7149099067300000   23.1013912708800007 Mg
  12.3416027486999997   12.1579927943399984   23.1480997956000003 Mg
  12.7191039642000003    9.0661152570299990   23.1696093844800011 Mg
   3.5647038932399999   16.2057044392199998    0.4471766956800000 Mg
  16.7398046582400006   16.3984044195899976    0.1602893635200000 Mg
   3.5979345719999998   20.1108021641099981    0.0319511368800000 Mg
   7.8628261339799996   19.6738088238900026    0.0908646710400000 Mg
   1.7236960984799998    3.6854167326299998    1.8696635848799998 V
   2.3399965659599999    1.9930203802799999    4.1407698852000001 V
   6.2963678813400001    3.6049689589500002    1.5908742532800000 V
   6.2698502930400002    0.1709730522000000    1.7769890455199999 V
  10.5870017665800003    3.5704728846899996    2.0530867780800000 V
  15.0440004815399995    3.8450848915800000    1.8527946840000002 V
   1.6642473656399999    7.0825694539500006    1.7874770004000002 V
   6.3819818092799991    7.3927541915999999    1.9285307121599999 V
  10.4940932993999994    7.0334739175500003    1.9692295459200000 V
  14.7451005692999999    7.5262380644700002    1.7510243961600001 V
   1.6718942980800000   10.7734986678600002    1.9021948077599999 V
   5.8885079916600001   10.8731970597599990    1.8095202684000000 V
   7.0005375932399998    9.2490176632499992    3.8957183553599997 V
  10.1976953788799989   10.5511906337399992    1.6873541568000001 V
  11.6028985032000005   12.3240993591599981    4.0357975226400002 V
  14.9474976037200005   11.0598031643399999    1.7744366671200000 V
   1.5350776381800000   14.5821064372199984    1.7311622515199998 V
   6.1450678609200002   14.3181963959400012    1.8387101959199998 V
   7.1221484865600004   16.1976941148599991    3.9671849505599996 V
  10.5426002233799991   14.0826024206100016    1.6257026167199999 V
  14.7605001521399988   14.6979977428799984    1.8421675084800002 V
   1.3588986578400000   21.4514979041700009    1.7822562264000001 V
   1.8327970332000001   18.0449998044299988    1.7278209561600002 V
   6.4188949969799998   18.0241988008500016    1.8163884866400002 V
   1.6628730321600000    1.8237269122200002    2.2552119439200000 O
   1.9854361477800000    0.1439705071800000    3.5643036218400002 O
   2.6114450479200002    3.3770623110300000    0.2512004414400000 O
   4.8915700091999996    2.8592551339200001    1.4836743604800000 O
   7.2217700442000003    1.8606992964300000    1.8330485565600001 O
   8.8267624932600004   -0.0059000776200000    1.6083232401600001 O
   4.5417316598999999    0.0268087468500000    1.4747874429600001 O
   6.5818944716400001    0.2736214829100000    3.7245697819200001 O
   8.9676845339400000    3.8502959090399997    1.7864792524800002 O
  10.9676040422399996    1.6746099869700002    2.3964280797600002 O
  11.1916027798200002    3.3998228294400001    0.3589572168000000 O
   0.2669378490000000    4.3968282815700004    1.3445001273600001 O
  13.3148951474399997    3.5754901039800000    1.7037589888800002 O
  15.9343042816800011    2.0813923457999999    2.1659947171200002 O
   2.7458654340600002    5.3550956328299995    2.1991524328800001 O
   4.8325970071799995    7.6664402739000002    1.4234150267999999 O
   1.6952051082600001    7.4390504211000001    3.6506436220800000 O
   2.4874731201599998    7.1046839784600007    0.1099843056000000 O
   6.7154162551200001    5.5004442603299992    2.2178312020800002 O
   6.5668120426799996    7.3628231408999998    3.9134457835200003 O
   8.8022535461999993    6.9072682426199998    1.4788016380800000 O
  11.2946954104800010    5.3340146985599999    2.1394963886400000 O
  11.0447957726999988    7.2422160797699995    3.9602239185600001 O
  13.1650927981199999    7.6815349980300001    1.5059728663200000 O
   0.1722850354800000    7.7452084634400000    1.4590555106400003 O
  15.6015922418999988    5.5777481970300000    1.7850406392000000 O
  15.5264972509799986    7.3140506014500000    3.6675125229600001 O
   2.3821780319999997    8.9632299618899989    1.9996028488800002 O
   2.1031530962399998   10.8539895077999997    3.6912264386400002 O
   2.0991358137600002   12.7503907337700007    2.0654310081600000 O
   0.0959919076800000   10.9343942152199993    1.3227120971999999 O
   7.0349664088799999    9.1043580959099994    2.0573098041600004 O
   4.1850216431999998   11.0871933056999996    1.6349607892800000 O
   6.7985105716800005   12.5155073517299993    2.1184508685600001 O
   6.1087008826800000   11.0329082849699986    3.7208804349600002 O
   8.7512270108399992   10.5051958680599995    0.9580468341600000 O
  10.9726961239800005    8.8049614563900001    2.1260383934400000 O
  11.1513066173999995   12.3037074850500012    2.1489865956000003 O
  11.2200937700400001   10.5781070462399995    0.0327400538400000 O
  13.4168072608800006   11.0455912985399998    1.1886658243200001 O
  15.5812062952799995    9.2013002471699998    2.2494574908000002 O
  15.5590936219799989   12.7211918094899996    2.0697004411200002 O
  15.2915038455599994   11.1806040236400008   23.1161022518400010 O
  17.5989921388200017   14.6040056304300006    1.2537978804000001 O
   2.4897460562999996   16.2100971977399979    2.0118310617600001 O
   2.3189586919200003   14.6852931961800000   23.0421992954399997 O
   2.2061047696200000   14.6534026306500014    3.7697468796000000 O
   4.5849703055399997   14.3614995203699998    1.2700634918400000 O
   7.0487273633399994   16.1864107547399989    1.9870961947200001 O
   6.4839644013599997   14.4268095036599995    3.7268437190400001 O
   8.9713318035600000   13.5874911625200010    1.1026738756800001 O
  10.5390058127399993   15.9383921633999996    1.7616515716800001 O
  11.3864938390799999   13.9970082288600004    0.0564539695200000 O
  13.0720081343399990   15.1079024055600009    1.6731072446400002 O
  15.8129048242799986   16.3426982122799984    2.0192793660000001 O
  15.5578073867999986   14.6319986994299995    3.4413253898400002 O
   0.2921163431400000   17.7105041630100004    1.2349566871200000 O
   2.5663915773000001   19.8359963590500001    2.0999809303200001 O
  17.3784997135799983   21.1362959472299998    1.6711117488000000 O
   2.8712469346199998   18.1704087535499994   23.0952887661599995 O
