POSCAR file written by OVITO Basic 3.11.1
1
8.80983 0.0 0.0
0.0 10.766565 0.0
0.0 0.0 11.60172
Mg V O 
12 24 60 
Cartesian
7.85603 1.76991 0.15378
0.908079 0.0334524 5.38402
5.46378 7.26436 5.55388
3.55203 5.38045 0.221399
7.93011 9.08204 0.298421
0.854737 3.82278 5.85708
5.18267 3.73618 5.56922
3.55363 1.79055 10.976
5.22043 11.0743 6.20183
7.80518 5.58974 11.4675
3.59576 9.11663 11.3825
0.945241 7.14384 6.20702
6.76726 1.68108 4.06615
1.67616 3.37421 1.68514
2.81135 1.82645 3.98345
6.11506 3.68419 1.81232
1.99478 -0.0817715 1.73818
7.33608 5.30719 3.95494
5.86036 10.635 1.83628
2.6586 5.34969 3.86364
1.52307 7.19953 1.73967
7.05249 9.08868 4.04325
6.25405 7.15891 1.84514
2.66869 8.80961 3.97851
7.34969 1.88664 7.61406
1.73619 3.79961 9.79251
2.35193 1.91807 7.52512
6.25237 3.60516 9.79087
2.99254 5.37616 7.58765
1.47902 0.0545762 9.77031
7.00193 5.56087 7.52203
6.39669 10.8143 9.8536
7.20238 8.90928 7.62997
1.88519 7.15828 9.77801
2.62909 9.1675 7.51078
5.89701 7.33814 9.7904
8.42497 1.44935 4.35641
0.126384 2.90135 1.32123
4.45622 2.03481 4.41674
4.53385 4.04661 1.40608
6.35897 1.70815 2.1174
2.03304 3.53735 3.62681
2.58019 1.71044 2.06784
6.6223 3.55793 3.71868
1.90001 1.90199 5.62398
0.104682 5.18009 4.35118
0.329796 -0.109944 1.47461
7.06807 5.3968 2.01934
2.17966 -0.00641146 3.76464
6.42001 5.45582 5.68386
2.49248 3.50365 0.0123746
2.13788 5.32074 1.98204
6.01426 10.7191 3.80584
4.19473 10.417 1.44954
4.3034 5.15319 4.1774
-0.0922013 7.51098 1.48178
8.61863 9.34901 4.35417
4.72577 6.68387 1.49562
4.26606 8.42413 4.346
1.84089 7.09017 3.69801
6.73662 8.98771 2.06841
2.38155 8.83021 2.0433
6.6812 7.16458 3.79008
6.45402 9.08221 5.89472
6.80553 10.8109 0.139828
1.91631 8.998 5.72117
2.45325 7.26609 0.118622
6.35585 1.91716 5.96399
6.87801 3.65676 11.6712
8.89699 2.15644 7.1297
0.19734 4.1151 10.1785
3.95278 1.68106 7.28261
4.64731 3.27999 10.0155
7.05899 1.81222 9.51932
2.01184 3.77574 7.77329
2.01854 1.8887 9.55882
6.68009 3.68124 7.85488
4.76884 0.110817 10.0201
2.41683 0.182714 11.347
1.66767 0.123017 7.77454
8.61769 5.5205 7.11654
6.5614 5.49058 9.69769
2.22098 5.50035 5.80602
6.76026 7.40918 11.4989
6.82648 10.8341 7.77565
2.74559 5.38867 9.55097
4.5288 4.98776 7.09483
8.77714 10.6231 10.3844
8.81344 8.45034 7.57758
0.302227 7.01624 10.2632
4.20971 9.64047 7.29548
4.25289 7.50364 10.0811
6.76705 8.99467 9.51093
2.42915 7.21013 7.7627
2.21705 9.06239 9.49805
6.14034 7.26336 7.76789
