POSCAR file written by OVITO Basic 3.11.1
1
8.80983 0.0 0.0
0.0 10.766565 0.0
0.0 0.0 11.60172
Mg V O 
12 24 60 
Direct
0.5900454379 0.3320910615 0.4330944032
0.0341170034 0.1213924775 0.9822422882
0.3595949071 0.0119362118 0.3770596084
0.0011972989 0.8721611768 0.2055634854
0.4820138414 0.5978415586 0.4505073386
0.9529775262 0.2867414073 0.4916900253
0.4926428773 0.1003607 0.9348786214
0.0407777449 0.0189500551 0.5431875618
0.5226094034 0.5523516553 0.959935251
0.8281714857 0.5595387201 0.0088925608
0.0308288582 0.7308700593 0.7131959744
0.502117521 0.8100475871 0.9205445399
0.7899834617 0.0644433949 0.3801427719
0.1388290126 0.3794775771 0.0652976455
0.1280013349 0.1476998467 0.2681111077
0.7779242051 0.2655600928 0.1278810383
0.211626104 0.4532959212 0.3333169565
0.6147314988 0.0076822552 0.1770728823
0.8503421746 0.4831708163 0.3340056474
0.2852461398 0.9533774235 0.0809804925
0.3473960337 0.6837259609 0.1795104519
0.8411501698 0.7758398338 0.4840256445
0.6503462609 0.6964867625 0.2451334802
0.1433864218 0.7782296396 0.4062707943
0.6566653386 0.1558157128 0.6532833063
0.3412177079 0.3270263078 0.8488499981
0.3070081943 0.2055186589 0.6264088428
0.7447249266 0.3358248429 0.858168444
0.8001993228 0.0604084961 0.8430103467
0.1973602215 0.0011228094 0.7782259872
0.7317666743 0.5280820763 0.6752516006
0.3900200117 0.5428351568 0.6849105133
0.6632148407 0.8962867916 0.6767513782
0.1629077973 0.6165652648 0.9289053692
0.3513870302 0.8473733266 0.6317727027
0.8268445589 0.8147157427 0.9033401944
0.9654862807 0.1668619471 0.3587364632
0.9881802487 0.2368796362 0.1329182225
0.2727033325 0.1842426066 0.3659336719
0.6543259064 0.1473088213 0.0779812821
0.8201259275 0.0375961135 0.2212473668
0.2139053762 0.3311548298 0.2064245646
0.7468146377 0.34158434 0.265864889
0.3864853238 0.0414844475 0.2063840534
0.3978657931 0.4308635112 0.3764709026
0.0328491015 0.4080437911 0.3834914133
0.5966959635 0.0171880261 0.3485483187
0.7548863031 0.3963984799 0.0512986867
0.739379761 0.1850107253 0.4801098458
0.809633103 0.6155723761 0.1890331778
0.0925998572 0.9787522761 0.3687703203
0.5025795049 0.9318663845 0.0424941302
0.1101917971 0.0266171244 0.1253839948
0.2628121087 0.5438661263 0.1840434005
0.2169122446 0.8244876616 0.1935669883
0.5249647269 0.6237616176 0.1186780926
0.3253002612 0.8570412197 0.4615427712
0.6613952823 0.8553916686 0.2000108605
0.205065251 0.6098333127 0.4131654617
0.6846375015 0.6134203434 0.3859944905
0.4529883096 0.7291034792 0.3145481877
0.9523384674 0.7537343619 0.3330781987
0.8349638983 0.9539811444 0.4874854763
0.0320196871 0.5209851053 0.0408008468
0.88326676 0.9693992466 0.9694338426
0.0324913194 0.7802553554 0.5370126154
0.3336171073 0.6971276354 0.9954127491
0.2859022251 0.4618845472 0.9707267543
0.7833465572 0.4327090395 0.4552661157
0.1720929916 0.2603708797 0.9436790407
0.4747208516 0.23039103 0.5611831694
0.5311101349 0.3541584526 0.903185045
0.2649086305 0.3833618243 0.7110204349
0.8385065319 0.2190122848 0.9346717556
0.3489965187 0.1715598243 0.7799541792
0.7353433608 0.3362771692 0.6858448575
0.1501652132 0.2104078692 0.5430849908
0.6267442164 0.1662740159 0.8108728706
0.246894662 0.0051975444 0.6213561437
0.0302238522 0.0749553827 0.8082198157
0.8101563821 0.0435297609 0.672286523
0.8223677415 0.4974214153 0.8235046183
0.6708313327 0.712244806 0.9305171992
0.6571080259 0.7869547994 0.5482428468
0.3438976689 0.6842971737 0.5939964074
0.5234732112 0.008912564 0.6209734419
0.2889352008 0.9896006758 0.9210961823
0.86748893 0.6135810261 0.6136357368
0.5432522534 0.4922136262 0.5851330665
0.5473306522 0.5752661132 0.7763659182
0.8473364412 0.8191219762 0.750175836
0.4930265397 0.832798576 0.7501155001
0.644628784 0.9557180029 0.871146692
0.9644170205 0.7057162614 0.9420327331
0.1626160777 0.6010728584 0.7810540161
0.1931512867 0.843051614 0.7654968401
