POSCAR file written by OVITO Basic 3.11.1
1
10.713 0.0 0.0
0.0 8.766 0.0
0.0 0.0 11.544
Mg V O 
12 24 60 
Cartesian
1.49641 5.33199 0.870027
-0.0600907 3.57899 4.78686
9.75552 7.92185 1.84038
6.91423 0.771409 1.96543
0.218331 0.494348 5.59858
4.99982 1.17588 10.9766
4.28907 5.31166 10.9038
0.499616 0.80069 8.82659
5.30746 2.98122 6.08609
5.6866 0.283216 6.02057
8.03783 4.56433 6.63829
8.98377 5.32946 10.7681
3.32529 2.3098 1.00356
1.90436 8.44029 1.02782
4.39461 0.813901 3.12732
4.49094 6.39484 2.56436
1.16492 6.68392 3.98319
3.57982 7.50456 5.28959
0.242922 2.50393 0.0375808
2.6415 1.78892 5.69559
8.49501 1.64479 4.25531
9.46228 4.6725 2.18172
6.96927 3.94159 3.48759
7.14173 6.99996 0.569402
3.21479 0.686383 8.33257
1.34181 6.60488 9.58283
2.28912 3.58224 9.28204
2.35677 4.89362 6.82189
5.10893 5.83597 7.71404
6.50311 3.6508 0.043995
6.88112 3.10363 8.69172
8.23566 0.838541 10.7595
9.05677 7.52395 8.91202
6.14208 7.79601 9.2443
8.42792 1.22407 7.1182
10.4308 6.2275 6.4592
4.58386 1.74973 4.72247
3.51389 8.16322 2.19061
2.8985 1.76074 2.77822
0.445965 0.863761 0.827359
1.28602 5.22938 5.33973
1.88242 3.33882 0.852375
3.49012 5.69366 1.29767
0.955093 7.78619 2.51541
3.12361 6.29896 3.92642
1.1416 2.08437 4.89883
5.00679 8.03568 4.3591
5.09971 1.51919 1.60598
2.00994 8.26049 4.99906
0.243229 5.42408 2.87364
2.98872 0.835583 11.4656
5.56541 4.9422 3.13914
6.8965 1.95774 3.49123
6.02985 7.44009 2.01381
10.3182 4.35679 0.57066
7.43305 3.28195 1.52202
8.28027 8.76486 0.860072
8.8384 6.25144 1.09883
8.12167 5.32276 3.34433
9.26861 3.20941 3.44023
10.4782 7.38259 5.09306
9.2335 0.497944 3.36381
7.03144 3.59927 5.30272
6.23099 5.4378 0.281231
7.47984 0.676945 5.58913
1.43938 7.12194 -0.0964647
0.977944 2.37945 9.9917
1.90466 8.30445 9.12828
3.85796 6.08711 6.35507
4.58326 3.34341 11.5775
3.81169 0.161912 6.63541
1.67204 1.16673 7.1193
1.28737 3.8121 7.76827
2.2395 5.05508 10.3901
3.32173 3.40122 6.26594
3.58182 2.38645 8.89015
1.1278 6.29815 7.63269
3.51109 5.0114 8.44025
4.65677 0.0537188 9.30206
5.35499 6.18154 9.46141
9.5518 2.11914 5.8418
9.6707 4.77033 5.78444
10.289 6.34824 9.74634
6.29039 8.4628 11.1691
6.12915 4.38736 7.41702
8.51635 2.82595 8.02398
6.66928 2.13904 10.4246
7.4747 4.2809 10.1196
9.75022 0.157783 10.0134
7.68587 0.1485 8.82173
6.37579 1.86945 7.48977
9.215 2.32891 10.9924
9.84006 8.82019 7.43827
5.98781 7.40168 7.35952
8.98449 6.27073 7.58963
7.82303 6.92658 10.1919
