Mg12 V24 O60
1.0
  17.6196599999999997    0.0000000000000000    0.0000000000000000
   0.0000000000000000   21.5331299999999999    0.0000000000000000
   0.0000000000000000    0.0000000000000000   23.2034400000000005
Mg V O
12 24 60
direct
   7.7598920802600002    8.8883162026199987   11.1924113184000014 Mg
   9.8615651250600003   21.5252058081599991    5.5555068254400002 Mg
   3.5236148461199996    1.4269574588399998   11.7242109597600006 Mg
   5.5580865076799997    3.5686210355100001    6.2610770289600008 Mg
   9.8676439077599998    7.1390723870699997    6.1415793129599994 Mg
   9.5369757485399997    3.6529878388499997    5.1619532795999996 Mg
   7.9551883916999993    1.9815432219899998   11.8325014142400011 Mg
   5.3477958655799993    0.0483418768500000    6.0759135777599997 Mg
   5.1572568623399997    7.6221896917500001    5.6645861968800002 Mg
   3.4256495365199999    8.9567700228899998   11.8496951632799998 Mg
   7.9810540525800002    5.3013920066099995    0.3251033978400000 Mg
   3.4893446074199996    5.4490446790200000   22.6066939300799987 Mg
   1.5001378523999997   10.6124093223299987    1.8568784894400001 V
   6.7976648279999994    1.9279257282900000    4.1720017154399995 V
   7.3450019462400000    1.8948723737400002    7.7472109540800007 V
   1.7127542896200001   10.7365908830399999    9.6877842516000001 V
   1.8034426796400000    3.6642065995800004    1.9624309380000000 V
   6.9045985445400007    5.3130414299400002    4.1250379528799996 V
   7.3770168684600002    5.3649793395000005    7.7376047299200001 V
   1.3092816952799999    3.5013515373899997    9.9737898530399995 V
   1.7394656941800000    6.9178194763200000    1.6422930763199999 V
   7.1939838403800005    9.0055425623399987    4.1907965018399995 V
   7.1827072579799998    9.0461325123900007    7.6263906419999996 V
   1.7161548840000000    7.2235468560599996    9.8383513737600001 V
   6.0065420939999994   21.5252058081599991    1.8657422035200000 V
   2.8804620167999997    1.9475854759800000    4.1807030054399998 V
   2.5280159578199997    1.7242007853600001    7.7089716849599998 V
   5.9632858287000001   10.8436105391400002    9.7775815644000001 V
   5.9230425252599996    3.6549258205499999    1.8951873688800001 V
   2.6934821848800001    5.5937903788800005    4.2430042418399996 V
   2.5654048763400001    5.1801389515800000    7.6730527598400000 V
   6.2252725532400000    3.5287632118799999    9.9663183453599995 V
   6.3950379773400003    7.2769059521999999    1.6739889753600001 V
   2.4746107683599998    8.8304351491799995    4.0462390706400004 V
   2.8877213167200000    8.9107106578200010    7.5944163016799999 V
   6.0727920156000001    7.0360363600199998    9.7902274392000006 V
  17.5771966193999987   11.0289892553099982    1.3273991920800001 O
   8.4705282073799992    2.0946782870100003    4.2816611728799998 O
   8.9461356897599984    1.6584601394700000    7.6399414509600003 O
  17.5530929245200014   20.7881052351300006   10.3210989429600009 O
   0.1984149912600000    3.4673937913800001    1.6456111682400001 O
   8.5404253986000001    4.9019093788500001    4.0334771786400001 O
   8.9215562640600012    5.8469769214199996    7.3935673250400002 O
  17.3256935925600004    3.6233151857100001   10.4982108004800008 O
   0.1418911219800000    6.4840776387300005    1.3325039488799999 O
   8.7095565149399992    8.7663094880400010    4.7158903490400004 O
   8.7477030788400008    8.8753963246200005    7.3160214285600000 O
   0.1392834123000000    7.6489338392099997   10.0528903800000009 O
   4.3956470588399998   21.4163989022700001    1.6540804238400000 O
   4.5116725199399994    1.5679779272100001    4.5892227700800001 O
   4.1404967623799998    1.8477578852999998    7.3844947799999998 O
   4.3370088303600003   11.2337047222200006   10.0379937715200001 O
   4.3510340797199998    3.6011791280700001    1.6700675940000000 O
   4.2502496245199994    5.8596814681199998    4.5822385346400001 O
   4.1911180455599997    4.8426502050900000    7.3109398752000008 O
   4.6109064450600004    3.4270191726299997   10.1580019632000003 O
   4.7747692830599995    7.5739985468100004    1.8598949366400002 O
   4.0696657291800005    9.1208524734900003    4.3989545620800001 O
   4.4499860902800004    8.8611629256899995    7.1929967896800004 O
   4.4803095251399991    6.6509378630999993   10.1134977652800000 O
   2.0784679525800001    0.0404176850100000    3.7729721577599999 O
   6.5729436843599993    1.7902644282000002    2.1166642036800001 O
   6.9231344268599999    1.7234901920699999    9.8082797155199994 O
   2.1490523105399997   10.5866987651100004    7.7379759849600003 O
   2.2782572773199998    3.6335003561999999    3.9612448699200002 O
   6.5110458187799995    5.4014564617200005    2.2356282405600001 O
   7.1395038516599998    5.2734850701300005    9.6602649717600002 O
   1.8332727640199999    3.4842757653000000    8.0572321159200015 O
   1.8419944957199998    7.1298346743000005    3.7405337486399999 O
   7.0446748415399991    8.9947113979500006    2.1878523576000002 O
   6.4485312650999997    8.9174720606399998    9.6023027786400004 O
   2.4146510653799997    7.1845503576299992    7.9376647896000003 O
   6.3254227006799999   10.7402084488800007    7.9155751147200002 O
   6.3636221235599999    9.1940866486200008    5.8384031659200000 O
   6.6332910198599997    0.0846467340300000    3.8738375114399997 O
   2.4238661475599996    1.8605700976499999    1.9894861490400000 O
   1.7510065714799998    1.7266555621799999    9.6840717011999988 O
   6.1005429801000002    3.6079405308900001    3.8430697500000002 O
   2.4978510999000001    5.4482910194700001    2.2429373241600001 O
   2.1157687728000001    5.1468487326000005    9.6845589734400015 O
   6.5556059389200003    3.5289354769200001    8.0498998288799992 O
   6.6089054104200002    7.2305881895699997    3.9250939104000002 O
   2.3009690190600001    8.7378857564399990    2.0629714435199999 O
   2.5004059506000003    8.8783894296899994    9.6866472830400010 O
   6.6522673936799999    7.0559114390100000    7.9516796673600005 O
   2.4346493794799997   10.4741020283400008    0.2618508204000000 O
   6.5469723055199998    1.7895323017800000    6.1147561363199996 O
   2.3579509994999999    3.7590169709699999    0.0650624457600000 O
   6.6008532257999999    5.2292560211100003    5.9513111049600003 O
   2.3469387120000000    6.9530907432600007   11.5887028701600006 O
   6.8085890171999992   21.5106924785400011   11.7665108308800015 O
   1.8483728126399999    1.8194202862200000    5.7971474496000006 O
   6.6647949719400001    3.6106537052699998    0.1297304330400000 O
   1.8615875576399998    5.2837133068800002    5.9193367646399997 O
   6.7858420361400000    7.3873278428399995   23.0939893735199995 O
   2.1329479412999999    8.7171493522499990    5.8680339587999999 O
