Mg12 V24 O60
1.0
  17.6196599999999997    0.0000000000000000    0.0000000000000000
   0.0000000000000000   21.5331299999999999    0.0000000000000000
   0.0000000000000000    0.0000000000000000   23.2034400000000005
Mg V O
12 24 60
direct
   7.7211464479199998    8.8873472117700008   11.9133886060799998 Mg
   9.7196035244399983    0.1627043302800000    6.1538539327199997 Mg
   3.3771778518600000    1.4789384346600001   11.7789014678399990 Mg
   5.4324407122200000    3.6046244288699998    5.9553253000800010 Mg
   9.6112249957800007    7.1309543970600000    5.3339139734399996 Mg
   9.6039304565400005    3.6031817091600002    6.3173453709599992 Mg
   7.8922862055000005    1.8931281902099999   11.3279890183200003 Mg
   5.3275684958999996   21.2238927200700012    5.6481117544800004 Mg
   5.1960024946800001    7.0835384447999994    6.2465748789599997 Mg
   3.4957053046800000    8.9599569261299994   11.0143017129600000 Mg
   7.8687815790600002    5.2577012858399996    0.4814945834400000 Mg
   3.6072025131599998    5.5399360207499990   22.7725985260799995 Mg
   1.4305578150600000   10.6736064777899990    1.6563311575200002 V
   7.1561896696799998    1.8254064963600001    4.1472436449600005 V
   7.0283590363799995    1.8700877411099999    7.6820788980000003 V
   1.8611118268200000   11.0587049747100004    9.7082264822400006 V
   1.8487252058400001    3.7085433142499999    1.7624868955199999 V
   6.6506463849599999    5.3801601961499994    4.2552092512800002 V
   7.3794836208599994    5.4346174819200002    7.9107487992000003 V
   1.6642473656399999    3.6753392277899999    9.8245221235199995 V
   1.9721156848199999    7.2360576045899991    1.6829222997600000 V
   6.7489993270799999    8.9088588086399998    3.9887409463200001 V
   7.0666817968799993    9.1341814809600006    7.5570587632800006 V
   1.2714875245800001    7.4681416797299995    9.7530091214399999 V
   6.2671544850599998    0.0716407235100000    1.8319811983199998 V
   2.4557401125000000    1.7264402308800000    3.9118679495999999 V
   2.8732555758600000    1.9586535048000000    7.6167612144000003 V
   6.1174578536999995   10.6679001983399999    9.7737529967999990 V
   5.9809054886999995    3.3690519866699997    1.8921245148000001 V
   3.0487650091199998    5.3751645099900003    4.0009227523200002 V
   2.3647698079200001    5.6805042933900003    7.6216339367999995 V
   6.0494459660999995    3.8294518391999999    9.9733025808000004 V
   5.9733995135400004    7.1290810147500006    1.8387798062400000 V
   2.9040547415400000    9.1144571338800002    3.7898642620800000 V
   2.5988822303399997    8.9084496791699994    7.3675330653600000 V
   6.1846063779599998    7.2158379955200003    9.8974273319999995 V
  17.4772931472000010   10.2331893698999998    1.3753607025600001 O
   8.7897964465800005    2.2690105074900000    4.8589395566400002 O
   8.7173620243199998    1.8993727979099999    7.4072109477599994 O
   0.0562067154000000    0.0743754310200000   10.0727989315199995 O
   0.2753248071600000    4.0103085980700000    1.5385969029600002 O
   8.2989303386400000    5.6204699269500003    4.3812967442400002 O
   9.0370002763800006    5.0905395976500003    7.7727115346400000 O
   0.0508679584200000    3.3880011410700002    9.7493429779199996 O
   0.3185282134800000    6.9423241782600007    1.4091449112000001 O
   8.2873189827000004    8.5529377028700004    4.2848400441600001 O
   8.6185685906999989    9.7327378955699988    7.4037536351999993 O
  17.4055987506600012    7.5966729326999998   10.5322966538399996 O
   4.6952693771400007   21.2903008929900004    1.5510107433600000 O
   4.0503545818199997    1.2741368352300000    4.1809118364000000 O
   4.4439073075800000    2.4856337952900001    7.2240893992799995 O
   4.5179098795800003   10.3927067969400007    9.9315131853600001 O
   4.6537926975000001    2.6011375046100000    1.2109875336000000 O
   4.6163333003400000    5.2125032459699998    4.6895312412000001 O
   4.0214759590800000    5.9018648697900007    7.4292310123200007 O
   4.5685487824199997    4.6110613919399999   10.0418919494400001 O
   4.4685395922599991    7.3614880868399997    1.2159994766400000 O
   4.5085538401200003    9.3292716387599999    4.1865038654399997 O
   4.1737626804600003    8.4894580356300011    7.5978272073600008 O
   4.5363752832599999    7.3662038423099991   10.2144095258400007 O
   1.8138735183599999   21.4417003300200015    3.7355914159200001 O
   7.0589467661400001    1.8480593491199999    2.1691039780799999 O
   6.5238376919399998    1.7964229033800001    9.7232623113600010 O
   2.1655619319600001   10.7891963196300011    7.6843992420000005 O
   2.4355127428199999    3.6522772455600001    3.5769262931999997 O
   6.5605042043999999    5.2779424280400002    2.1377793340800002 O
   7.1236637773200000    5.5485062064899999   10.0156024519199995 O
   2.1568930592399997    3.7717215176700001    7.9108880198400007 O
   2.3626730683799999    7.1121775076999993    3.6348420794400003 O
   6.4643008607999999    8.9366580794699999    2.0542701535200001 O
   6.8346661140000000    9.0173211844499992    9.6403100133599988 O
   1.5096524688000001    7.4390073548400002    7.7387416984800002 O
   6.2165860608600001   10.7500921555500000    7.8484011559200004 O
   6.2876461496399996    8.6624121357899995    5.9334676596000007 O
   6.5963954518200003   21.4632980594100005    3.9876503846400002 O
   2.1083508959400001    1.7361301393800002    1.8094970649600000 O
   2.1328598429999999    1.8860222573100001    9.5261026816799994 O
   6.2164979625600001    3.5048614375799998    3.9750277132799998 O
   2.8512486205199998    5.4387518428800004    1.8598717332000001 O
   1.8900961675200001    5.6570977810800001    9.6504499166399995 O
   6.5057423011199997    3.6946329122700003    8.1218304928799991 O
   6.0536394451800000    7.1889000498900000    3.7204395696000003 O
   2.4917370778799999    9.0633805495199997    1.9009186185600000 O
   2.1125619946800001    9.2061667345499991    9.5605829935200006 O
   6.7076283653999997    7.2031765150799991    7.9534895356800011 O
   2.3323672531799997   10.5913929874499999   23.0644049875199997 O
   6.2937954109799996    1.7483394240900001    5.8631380329600002 O
   2.5668320688000001    3.6826604919900001   23.1128073633600017 O
   6.4150539110999993    5.4621798883199997    6.2592671606400003 O
   2.3352040184400003    7.2960489047700001   11.4818046220800003 O
   6.7760278855200005   21.4477080732899985   11.4393887337599995 O
   2.0194244719199999    1.8958844308500000    5.8103966138400001 O
   6.8487442223400006    3.5938578638699998    0.0538087773600000 O
   2.1908637637199999    5.4227957935499997    5.6731250627999996 O
   6.7834986213599997    7.0835815110599993    0.0592615857600000 O
   2.1848026006799999    8.7843327178500008    5.5796151996000001 O
