Mg12 V24 O60
1.0
  17.6196599999999997    0.0000000000000000    0.0000000000000000
   0.0000000000000000   21.5331299999999999    0.0000000000000000
   0.0000000000000000    0.0000000000000000   23.2034400000000005
Mg V O
12 24 60
direct
   7.8100023933000005    8.8853876969400005   11.1359109420000006 Mg
   9.5924071989000002   21.2576997341700000    6.0066513093600005 Mg
   3.5665363378799997    1.5724783513799998   12.0511938362400013 Mg
   5.1771494584799997    3.6968508246599998    6.2168976792000006 Mg
   9.8230661679599987    7.0605410619600004    5.7917874549599997 Mg
   9.5855883904799999    3.7716138520200002    5.6188058097600004 Mg
   8.1008853602399995    1.4576421690900001   11.0068070018400004 Mg
   5.1944872039200005    0.4220493480000000    5.2508920651200004 Mg
   5.2602437750399993    7.2828706292099996    5.7665653156800003 Mg
   3.4982953946999999    9.1988239372200002   11.6158044880800002 Mg
   7.7423781382200003    5.5126320119100001    0.6428745086400001 Mg
   3.4813276621200000    5.4596389789800002   22.4429008471200007 Mg
   1.5979622047199999   10.9183089671100007    1.8359025796799999 V
   7.1304297267600001    2.1754705907699998    3.9791579256000000 V
   7.0373626826399995    1.6361302836599998    7.4722733935200001 V
   1.9360482408000002   10.6832102537699996    9.6713098092000003 V
   1.9129664862000000    3.8919409824600004    1.7229946406400001 V
   6.8879303461800001    5.4379335839399996    4.1365004522400000 V
   7.2054542390399998    5.3630198246700003    7.6435379841600000 V
   1.6816555897199998    3.3744998685599996    9.8885404144800013 V
   1.7437825108800000    7.2898042970699999    1.7681485348800001 V
   7.2011726616599994    8.9478337739400011    3.9363707822400000 V
   7.0116027397199998    8.9277002973900004    7.6508934746400001 V
   1.6099083342000000    7.2721255973400005    9.9633715084799999 V
   6.1021816084800005    0.1144270528200000    1.9002689222400000 V
   2.4506656504200000    1.9143167901299998    3.9514066113599999 V
   2.7568777215600000    1.9017199090800001    7.4769604883999996 V
   5.8763680459199996   10.6770948448500000    9.8687246767199994 V
   5.8946748726599996    3.6057010853699998    1.6657053472800001 V
   2.7498298575600000    5.5917231984000004    4.0411575172800003 V
   2.5082466993000003    5.3319690512099998    7.7390665466400010 V
   6.0981114670199998    3.5714849418000001    9.7554454826400008 V
   5.8237028821800001    7.4171727610199998    1.7898901581600000 V
   2.6415218075399998    9.0659645251200001    3.9692732601600000 V
   2.8443240941399996    8.7718650355799994    7.5656672395200006 V
   5.9755314924000000    7.0752912560099999    9.8151479337600005 V
   0.0761697901800000   11.1632913871199992    1.3001815569599999 O
   8.7387875308799998    2.4975200830500000    4.4478906170399997 O
   8.6246826127199991    1.1866692611700000    7.1792835566400006 O
   0.2573527539600000   21.4466098836599990   10.2341092464000010 O
   0.4331264821200000    4.5303336875699998    1.3896076147200001 O
   8.4544062184799991    5.6078299796400000    4.4032239950400003 O
   8.7803346891600000    5.3997553444499999    7.1437358865600000 O
   0.0380760852600000    2.9068864174800000   10.0957935405600008 O
   0.1680034581000000    7.2361437371099999    1.2237958324800000 O
   8.6953903083000004    8.3427312878099986    4.3654952015999999 O
   8.7045172921800003    9.0672134466600003    7.6070389730399999 O
   0.0194873439600000    7.3007646602400005   10.4796016416000004 O
   4.4309920967999998    0.0331825533300000    1.8359257831200000 O
   4.1037597712800000    1.6110657203399998    4.2611261284799999 O
   4.4672357374200002    2.0525810178600001    7.1638300656000009 O
   4.1784671296799996   10.7908974368999999   10.2339004154400008 O
   4.2982808176800003    3.2150901071700000    1.2593202991200001 O
   4.2946335480600002    5.8567529624399999    4.6552365568800003 O
   4.0741058835000006    4.9173486330600005    7.4181861748799998 O
   4.5300498253199999    3.6873116480700001   10.1395088215199998 O
   4.2636405661200003    7.8788646013500001    1.3657544784000002 O
   4.2867575600399999    9.1089877188599999    4.2971842742400002 O
   4.3476334853400003    8.3049191115299994    7.1124808528800001 O
   4.4065536283800002    6.7194778158900004    9.9673857035999998 O
   1.8356337984600000    0.1950255584100000    3.8007002685600000 O
   6.5798682107399999    1.9242866293200001    1.9116386078400001 O
   6.7443829761599998    1.6037659892700000    9.4251909211200005 O
   2.4529033472399999   10.6135075119600000    7.5974095454399997 O
   2.0377136789999999    3.7787413180500002    3.8226507228000002 O
   6.1749155649600000    5.4247983746399999    2.0509288581599998 O
   6.8668043738400000    5.3691137004599998    9.5061013164000006 O
   1.9324538301599998    3.5367950693700001    7.7690453911199997 O
   2.1118572082800000    7.2856699361100006    3.6932451379200000 O
   6.6102797439000005    9.0898662994200006    2.0564512768799998 O
   6.5439945829799999    8.8890698621700004    9.6953485730400004 O
   1.8372019481999999    7.1995589492399992    7.8364281808800005 O
   6.0073878376799996   10.6540974620100002    7.9806839673600010 O
   6.5194151572800001    9.0721660665600012    5.8187962591200009 O
   6.7426033904999993    0.2226956304600000    3.8674565654399999 O
   1.7728020909000000    1.9741358252699999    1.9621524967199999 O
   2.5772981468399996    1.7400707021700001    9.4752175377600008 O
   6.0698319127200007    3.7059808717800000    3.7667304324000002 O
   2.6976932836199996    5.5641177257400001    1.9809008762400000 O
   2.2104920649599999    5.4479464893899996    9.6244156569600001 O
   6.4769341570199996    3.5287847450099998    7.8159859502400000 O
   6.1689072609000002    7.2858852674100003    3.7691899970400002 O
   2.1097957080600001    9.1001591355600002    1.8890384572800001 O
   2.5183427644799998    8.8651896210000007    9.5851786399200005 O
   6.3722028979800003    7.1327201137199996    7.9413773399999998 O
   2.4124662275400004   10.7637010937100008    0.1240223868000000 O
   6.2838050637600000    1.9604407545900000    5.6195715232800003 O
   2.5162812642599999    3.5760068990999998   23.1338064765600002 O
   6.2857256066999998    5.5266285464100005    5.9700594844800010 O
   2.4855878165399998    7.5137488490699997   11.7472983825600004 O
   6.5481352030800002    0.1391040198000000   11.4479043962400002 O
   1.9322071549199999    2.0418144528600002    5.7742688577600001 O
   6.6164466249000000    3.7016311795200001   23.1601887878400028 O
   1.8970735528800000    5.4812367083700009    5.8013008653600000 O
   6.8982378472799999    7.2942401218500006   23.2337900995200037 O
   1.9941754991400000    8.9621533053900002    5.8354331255999998 O
