Mg12 V24 O60
1.0
  17.6196599999999997    0.0000000000000000    0.0000000000000000
   0.0000000000000000   21.5331299999999999    0.0000000000000000
   0.0000000000000000    0.0000000000000000   23.2034400000000005
Mg V O
12 24 60
direct
   8.1072812968200001    9.2560805298899993   11.3343003539999998 Mg
   9.6328443186000001    0.2589143551200000    6.2534895040800000 Mg
   3.5258173036200002    1.9169007657300001   12.1770957016799990 Mg
   5.1036049976400006    3.8486593911600000    5.8663401076800001 Mg
   9.6969975006600002    7.2209198142000002    5.7297182529599997 Mg
   9.7048734886800005    3.7277939324700000    5.6311964467199997 Mg
   8.0439562387799999    1.9606345527599998   11.0811972304800008 Mg
   5.3257008119400000    0.1383718933800000    5.4553607784000002 Mg
   5.3711066757600001    6.8670228226500001    6.2723539008000007 Mg
   3.6010003928400001    8.7343112568599999   11.2513944628800004 Mg
   7.9761205477799999    5.6496903843599995    0.5921285853600000 Mg
   3.6292623274799998    5.5374381776700003   23.1028066807200005 Mg
   1.4814786324600000   10.7295926157899988    1.9660738780800000 V
   7.2597932704800003    2.1213147688200000    4.0080926152799998 V
   7.0284471346799995    1.8891230280300000    7.5968758663200004 V
   1.9393783565400000   10.8321979802400019    9.8349868749600002 V
   1.6449538379399999    3.7566698598000001    1.6800450732000001 V
   7.0769540586599993    5.3745831154800001    4.0891422312000003 V
   7.1703030173400002    5.1488728468199998    7.5624419613600002 V
   1.9827403398000001    3.3945687457200000    9.9282182968800008 V
   1.9010379763800000    7.3519704433799999    1.6568184297599999 V
   7.2495033890399991    8.8991904332700003    3.8902887504000003 V
   7.1254257433199992    8.8882731363599987    7.5540191126400007 V
   1.4563529973000000    7.0997098254299997    9.7349104382400000 V
   6.2903243379599996    0.1121876073000000    1.8930294489600001 V
   2.3874286906800002    1.7828139652200001    4.0483273802399999 V
   2.7639960642000001    1.6621853709599999    7.6564623002400003 V
   5.9988423025800000   10.6435892945699990    9.6467141628000004 V
   5.9858389934999998    3.5568854796600000    1.7200942106400001 V
   2.9439808911000003    5.5818394917299994    3.9068095996799999 V
   2.3995862560800001    5.1589503516599997    7.4325723076800001 V
   5.9237825509799995    3.6975829510800002    9.8724836340000000 V
   5.8687915921200000    7.2767336871600001    1.8137200910400000 V
   2.8112872316400002    8.9980274999700001    4.1102341581599999 V
   2.8126968044399998    8.8230492855900007    7.5917014992000009 V
   6.0439662518399997    7.0663119408000004    9.8209487937600013 V
  17.4498945759000001   10.4590073042100009    1.5922896631200001 O
   8.8840263882599988    2.3692041613799999    4.4612093915999997 O
   8.6596047788400003    1.6534644533099998    7.2849288189600001 O
   0.1249057697400000   21.2986988136899988   10.0892965773600007 O
   0.0527004030600000    4.1455797207299998    1.2712236638400001 O
   8.7601601784599996    5.3224083414900001    4.3961005389599999 O
   8.8255643563800010    5.0032227555000004    7.0779541341600005 O
   0.4525962064200000    2.7609994617300000   10.1645917401600006 O
   0.2870066417400000    7.4307386329199998    1.4221620410400000 O
   8.8079623160399994    8.5853235303899993    4.4050570668000004 O
   8.7605830502999993    9.0907276246199995    7.2199591869600006 O
  17.3755043713799999    7.4769056636399993   10.0731933900000001 O
   4.6386750292199999    0.0265072830300000    1.4843008533599999 O
   3.8947553643599999    1.2683874895200000    4.2460438924799995 O
   4.1231061579599997    1.1235556571400001    6.9720072271199998 O
   4.4500213296000002   10.3570909999200005   10.1183008773599994 O
   4.4591130741600002    3.1372047759599999    1.4606565480000002 O
   4.4048445213600003    6.0158181937499995    4.6181806632000004 O
   4.0425314527799996    4.9866422454000006    7.1514858355199999 O
   4.3823618352000002    4.0651534801800002   10.4383923321599994 O
   4.2866166027599997    7.3536069612599997    1.5022603159199999 O
   4.4152753600799999    9.3604300778699994    4.3478837906400001 O
   4.2802030465199996    8.1072449781299998    7.4425497868799999 O
   4.3870839040799998    6.9938960246099997   10.0899926805600000 O
   1.5174227388600001    0.0127691460900000    3.8278482933600002 O
   6.9666549870600001    1.9445062383899998    2.0043595540800001 O
   6.7470083055000005    2.0326628726100000    9.6256686427199991 O
   2.6013842220599996   10.6679001983399999    7.8039201614400007 O
   2.4773241960000001    3.7890556873200003    3.8446011770400004 O
   6.4429282132200001    5.3652592701900002    2.0631570710400000 O
   6.8300145237599992    5.3367494060700000    9.4966807197600005 O
   2.3165976574800000    3.3453655436699998    7.9397530991999998 O
   2.1351856381199998    7.1753126448600000    3.5710094160000003 O
   6.4860787605599999    9.0483288916499998    1.9891845043200000 O
   6.7271685683399998    8.8850001005999992    9.3867196176000007 O
   1.9744414799400001    7.1063635625999995    7.8930445744800002 O
   6.3499668870599999   10.6351913738699988    7.7045398279199997 O
   6.5889070963199998    8.9675581210199997    5.6524275943199997 O
   6.7545847593000001    0.1959730161300000    3.8820979360800005 O
   2.0569014887399999    1.8282058032600002    2.0328765818400001 O
   2.8438659829799997    1.6906306356900000    9.6984578339999992 O
   6.2893552566600004    3.6612996270299996    3.6816898248000003 O
   2.5128982895399998    5.4106080419700007    1.8340695079200000 O
   2.2587346940400002    5.2863834149999995    9.5196985322399996 O
   6.1059874550400002    3.5523419892300003    7.8502342276800006 O
   6.4286562886200000    7.1952738563699992    3.6666075887999998 O
   2.6254526776199998    9.1483933467600007    1.9984426768799999 O
   2.1536334221400000    8.9162662053599995    9.6571557107999997 O
   6.5687325856200003    7.0196927143499996    7.8234342544800004 O
   2.1970835037000001   10.9722925240199984    0.1288022954400000 O
   6.3143223148800001    2.0487050544600001    5.7429210103199999 O
   2.4317949945600001    3.6692022857400000   -0.0171241387200000 O
   6.4886688505799999    5.2547512470299997    5.8210701962400000 O
   2.2751033581799995    7.1993436179400003   11.5555915612800000 O
   6.9182537810399998    0.1420540586100000   11.5151943722399999 O
   1.7020415363400001    1.9389937571100000    5.8747165495199996 O
   6.8647428736199991    3.6961617644999998    0.0922104705600000 O
   2.0026153162800000    5.4752504982300003    5.6401297711200007 O
   6.5859117541199996    7.1760232381500009    0.1453695516000000 O
   2.1068532248400000    8.9383591967400005    5.8217895028800006 O
