Mg12 V24 O60
1.0
  17.6196599999999997    0.0000000000000000    0.0000000000000000
   0.0000000000000000   21.5331299999999999    0.0000000000000000
   0.0000000000000000    0.0000000000000000   23.2034400000000005
Mg V O
12 24 60
direct
   7.8060732091199991    8.8810164715499997   11.2037113936800008 Mg
   9.9365543980200002    0.3092803461900000    5.9695954156799997 Mg
   3.4305654216600003    1.7133696209700000   12.3411904293600010 Mg
   5.3460162799199997    3.6512867215800000    6.2656713100800001 Mg
   9.6549041329199987    7.2475778291399999    5.1123907317599997 Mg
   9.6951826756799999    3.5154988037999999    5.9125149532799997 Mg
   7.8072361066799996    1.7924608074599999   11.1211071472800000 Mg
   5.1205903498799996    0.1751720125500000    5.2846298668800005 Mg
   5.5513557975600003    7.0111655948700005    5.9428186459200001 Mg
   3.6661755151800000    8.8113137297400002   11.2730896792799999 Mg
   7.8575226163199998    5.2304834095200006    0.2619204307200000 Mg
   3.5042332201200002    5.4759180252599995   22.9349065888800006 Mg
   1.4386804783200000   10.6596960758100003    1.7737173604799998 V
   7.2767257637400000    1.7132404221899999    4.0135686271199997 V
   7.2273554764200005    1.8244805717699999    7.5016257451199992 V
   2.1910399603199999   10.8110955128399997    9.8041727066399993 V
   1.8811101409200000    3.5553996936900001    1.7083996768800001 V
   7.1358742017000001    5.3019303348599998    3.9633099760799997 V
   7.2872270810999993    5.2343809060500002    7.6307296852799995 V
   1.6093268854200000    3.3909296467500001    9.9188905139999992 V
   1.7622655342199998    7.1179268534099993    1.6650788544000001 V
   7.1003529671399992    8.9348277634200013    3.9418699975200004 V
   7.0797027256200007    8.9577390137399995    7.3643309906400010 V
   1.7659832824799999    7.1081723455199999    9.6073843319999988 V
   6.3297042780599995   21.5452962184499981    1.7560827460799999 V
   2.3824951858799999    1.6581371425200000    4.0778421559200000 V
   2.8321136697599996    1.6744161888000000    7.5361524638400006 V
   6.0979528900800002   10.5773964529499995    9.6256686427199991 V
   6.1061107926600000    3.3931044928800000    1.6733856859200000 V
   2.8836159359400000    5.2522534039500002    3.9284120023200004 V
   2.6184224332799997    5.0907764620800000    7.4380019126400008 V
   5.8955734753200000    3.6907138826099999    9.9011862892800000 V
   5.7761121805200002    7.1357778181800002    1.9304101908000002 V
   2.4897284366400001    9.0204219551699989    4.0310408174400001 V
   2.6552122833600000    8.7646299038999995    7.4895599563200008 V
   6.1388481209400005    7.0482241115999997    9.6709153507199996 V
  17.5044979022400007   10.5571983770099997    1.3531086036000000 O
   8.8900523119799999    1.8682574250600001    4.6028895962399998 O
   8.8916204617200005    1.8780765323400002    7.2479193321599995 O
   0.1522514820600000   21.4820964819000011   10.0618005009600004 O
   0.1908385374600000    3.4742197935899997    1.5853750380000000 O
   8.6214229756199998    5.7647418979499996    4.4397230061600004 O
   8.8688030020199999    4.8902168892599995    7.3581588756000000 O
   0.1440583401600000    2.7454956081300002   10.2349909771200007 O
   0.2078591290200000    6.7120919522999998    1.4460383808000001 O
   8.8251767238599985    8.7254396073000002    4.0518310996800002 O
   8.6574375606600000    9.1950771725999996    6.9500799763200005 O
   0.1992959742600000    7.3719962542799999   10.0062050587200009 O
   4.7017357923600001    0.2442933598500000    1.4877117590400002 O
   4.0504074407999999    1.4928273035099999    4.4070293592000001 O
   4.3032495618000004    2.0074906436400002    6.9862541392799997 O
   4.5112144087799999   10.1671041939299993   10.0882988294399993 O
   4.5322875221399999    3.0710334674699999    1.5359517108000000 O
   4.4814548030400001    5.0562157884299994    4.4278196414400002 O
   4.2746528536200001    5.3538897775500001    7.3669297759200010 O
   4.3565666529599998    4.0369666130099997   10.2080053764000009 O
   4.1481436948199999    7.4251615522499996    1.4237630783999999 O
   4.0848362564400000    9.4367650237199996    4.3134498856799999 O
   4.2271678699199997    8.2103886708299996    7.0699025404800002 O
   4.6180776466799998    7.1073110203200001   10.3210989429600009 O
   1.5673216159800001   21.5039095425899980    3.7698396933600002 O
   6.9010217535600002    1.7437744005300000    2.0629018332000002 O
   6.5655434271599997    1.7490500173800001    9.5365442296800005 O
   2.4802490595600002   10.7275900347000004    7.6869284169600007 O
   2.2897452956399995    3.5503394081399997    3.6459565272000001 O
   6.4619750656799999    5.3022317986800003    1.8901058155200001 O
   6.8795081486999994    5.3711162815500000    9.6056208705600010 O
   1.8741503752199999    3.4031389314599996    7.6177357588799994 O
   2.2498543853999999    7.0507004215499993    3.8239965223200003 O
   6.6586280909399997    8.9166968679600007    2.0885648378399999 O
   6.7898240792999998    8.8262361888300003    9.3646299427200006 O
   1.7473416821999999    7.0867684142999998    7.6801298090399994 O
   6.3552351653999999   10.8020085319800003    7.6846544798399998 O
   6.3335277442799995    9.0451419884100002    5.6613145118400006 O
   6.6115307397600001   21.4353911229299996    3.7428076857600003 O
   2.2682669300999998    1.7134557534900001    2.0061462189600001 O
   2.4864687995399999    1.8351179379899998    9.4995115394400003 O
   6.6800888368199995    3.4290648199799998    3.5796875025600001 O
   2.5503400670400000    5.3170035258599997    1.9296676807200002 O
   2.0780627003999999    5.2485927718499994    9.3304048687200005 O
   6.4314754342199993    3.5860844039399997    7.9155519112800006 O
   6.2645996343599997    7.0406875160999993    3.8614468744800003 O
   2.1940881614999999    8.9130793021199999    2.0854323734400002 O
   2.4548767491599999    8.8311242093400004    9.3879493999200001 O
   6.7215831361199996    7.1146538176499998    7.6360896799200004 O
   2.4458731028999998   10.7098898018399993   23.1606992635200015 O
   6.4286915279399999    1.9687094765099999    5.7825524858400001 O
   2.5379182067400001    3.5851154130900000   23.2737928300799979 O
   6.5559583321200003    5.1195662568899998    5.9051130559200011 O
   2.4638451560999997    7.0761310480800006   11.5273993816800004 O
   6.6524612099399993    0.1709730522000000   11.5215057079200012 O
   1.8028083718800001    1.4527541485800000    5.9274347652000001 O
   6.8489204189400006    3.3864076894499999    0.0314870680800000 O
   1.9767320357400000    5.3710732152900000    5.6867918889600002 O
   6.7809613903200008    7.1453169947699999    0.2011042144800000 O
   1.7695776931199998    8.9457450603299993    5.7854761192800002 O
