Mg12 V24 O60
1.0
  17.6196599999999997    0.0000000000000000    0.0000000000000000
   0.0000000000000000   21.5331299999999999    0.0000000000000000
   0.0000000000000000    0.0000000000000000   23.2034400000000005
Mg V O
12 24 60
direct
   7.7924884512600006    8.6196042733499993   11.5789110184799995 Mg
   9.6548865132600010    0.0041774272200000    5.9439788179200006 Mg
   3.6610658137800001    1.6595152628399998   12.1425921864000017 Mg
   5.6788340376599997    3.5552920280400002    6.0764936637599991 Mg
  10.0262032280999982    7.2256140365400006    6.1781015275200000 Mg
   9.7288714655999993    3.7546242124500000    5.7528752860800001 Mg
   7.9748166929399993    1.6176763912499998   11.9203960449600004 Mg
   5.3128736994599999    0.2115199359900000    5.3769331512000003 Mg
   5.6304680709600001    7.2648689325299998    5.6292009508800005 Mg
   3.4216498736999998    8.8261285231799995   11.2238983864800002 Mg
   7.6510554404400004    5.4175201766999992    0.3756636936000000 Mg
   3.4405381492200000    5.1860174960699998   23.0383939312799981 Mg
   1.5551464309199998   10.5748986098700009    1.7308606067999999 V
   7.3089873611999998    1.8600748356600001    4.0102273317600003 V
   7.1809805312999995    1.5108505333200002    7.7549376996000001 V
   1.6779202217999998   10.6584902205300001    9.7161156518400009 V
   1.7103051568800001    3.5068640186700000    1.8605678364000002 V
   7.2129778338599992    5.3041051809899997    3.9676722228000001 V
   7.2903281412599998    5.3569044157499999    7.6709876536799992 V
   1.5831088313399999    3.4773851636999997    9.6434888846400000 V
   1.7786165786999999    6.8901278711399998    1.8545349419999999 V
   7.3300957138799996    9.1197758169899998    4.0134990168000000 V
   7.3799241123599995    8.8441086867299994    7.6112852025599995 V
   1.4767918029000000    6.9220184366700002    9.6298684653600013 V
   6.2391920846399991    0.0387165677400000    1.8297536680800000 V
   2.5707260136599999    1.6085032778699999    3.9325190111999997 V
   2.6900992101600001    1.8554452127099998    7.4393245087199995 V
   5.9728180647600002   10.4689986765299992    9.6319103680799998 V
   6.1031859290999995    3.5554858262100004    1.9148638860000000 V
   2.9821979336399997    5.3123523697800001    3.9505016771999997 V
   2.7509927551200000    5.1587565534900000    7.4575624125599997 V
   6.1938919387799993    3.5324238439799998    9.7840553241600006 V
   6.1900332332400003    7.3396750261500001    1.8042066806400001 V
   2.8167669459000000    8.8718002919100005    3.8682686858399999 V
   2.5334780524200000    8.8332129229500005    7.3844019662399996 V
   6.1500013657200006    7.0547486499899996    9.7903666598400001 V
  17.5555949162400005   10.2823925719500000    1.4797993860000000 O
   8.8420387384800012    2.2396823844300000    4.4226452743199998 O
   8.8255819760399987    1.4803596212400001    7.6215179196000005 O
   0.4134277022400000    0.4842370274400000    9.9948817800000000 O
   0.1291168684800000    3.5272989590400003    1.6066293890399999 O
   8.7791013129600000    5.0916162541499999    4.4648059248000003 O
   8.9351938809000000    5.3859956743800002    7.4886782256000011 O
  -0.0168091556400000    3.2067137195999997   10.1009911111200008 O
   0.2094272787600000    6.7516267789799995    1.3569371712000000 O
   8.9412550439400000    9.4775487719399987    4.3837563088800007 O
   9.0981933555599994    8.6505904474199991    7.4737352102400001 O
  17.4717958132800000    6.8268420020700002   10.0653042203999998 O
   4.7123604473400000    0.2355293759400000    1.4949280288800000 O
   4.1458178996999999    1.7347520190599999    4.3567707081600000 O
   4.2800620892399994    1.9207767291300000    7.1271454269600003 O
   4.3720014751199994   10.1977027716599995   10.0298029571999994 O
   4.6369483025399996    3.1224115156500001    1.1887586380799999 O
   4.6266231817800003    5.7523172819399999    4.2574599849600006 O
   4.3540470415800003    4.8027277820699998    7.1421580526400010 O
   4.5994712857200000    3.9602010045600000   10.0139086008000007 O
   4.6210729888800000    7.6756779866700002    1.4506558653600001 O
   4.3865024553000005    8.7604524766799994    4.4341773839999998 O
   4.1623627604399998    8.9227907437499994    7.1237809281600004 O
   4.4795166404400000    7.0068374357400005   10.0375064992800009 O
   1.8850217054399998   21.3503998588200012    3.7869174252000000 O
   7.1693339360399992    1.9374218386199999    2.0753388770400001 O
   6.4819381404600005    1.6654799398500000    9.7084585166400004 O
   1.8785552902200000   10.5615911355299996    7.6351847457600002 O
   2.2351067299800000    3.4590820032000003    3.7839009780000001 O
   6.5586365204400003    5.4701686795500004    2.1649505623200000 O
   6.8511052567799995    5.2738511333400000    9.6071290941599994 O
   1.7338097833200001    3.6209896076699999    7.6689457509599999 O
   2.2282703018999999    6.9702741809999997    3.7268205156000000 O
   7.1107485665399999    8.9942807353499994    1.9567692986400000 O
   6.8661700660799996    8.9253101199600007    9.5661518191199999 O
   2.0308067722800001    6.9403431302999996    7.6290822410399999 O
   6.3235902560400001   10.5124094666100003    7.6159722974400008 O
   6.7038929974799997    8.7792939654300000    5.8532301640800002 O
   6.8150906717400002    0.0209086692300000    3.8892213921600005 O
   2.2174342109999996    1.6928270149500000    1.9000368878400000 O
   2.4278481907199998    1.8525382401599999    9.4744518242399991 O
   6.3468658269000002    3.5751886401600004    3.8662731899999998 O
   2.8337522981399998    5.0906472633000002    2.0181191940000001 O
   2.3329310823000000    5.2996908893399999    9.4550769518400006 O
   6.7023248477399990    3.5530310493900004    7.8164036121600002 O
   6.9596247427200000    7.2448861878899997    3.7323661377600001 O
   2.4131886335999999    8.8444101505500008    1.9660970815200001 O
   2.1759046723800002    8.7575024378699986    9.4700895775200014 O
   6.4593497363400001    7.2066433490100001    7.8138744372000009 O
   2.3460224896799997   10.4663070352799998    0.0322527816000000 O
   6.5999898624600002    1.6475428425599998    5.8523252299199999 O
   2.0899031119200000    3.6376993165500000    0.0738101426400000 O
   6.6851985382199999    5.3807200575299996    5.8304211825600003 O
   2.2700641354200002    7.1717596784099999   11.3831900020800010 O
   6.5830926085200003   21.3805031745600012   11.7708962810400006 O
   1.9014256088999999    1.4833957925700001    5.7106218218400002 O
   7.0011366616799995    3.6841893442200000    0.1999440424800000 O
   2.0480387997600000    5.1983775126899996    5.6395960919999997 O
   6.7376170267199997    7.2292100692499996   23.1316949635200011 O
   2.0495540905200000    8.8252025985899998    5.6690412573600000 O
