Mg12 V24 O60
1.0
  17.6196599999999997    0.0000000000000000    0.0000000000000000
   0.0000000000000000   21.5331299999999999    0.0000000000000000
   0.0000000000000000    0.0000000000000000   23.2034400000000005
Mg V O
12 24 60
direct
   7.7503069852199999    8.8737167404800008   11.6439038539199995 Mg
   9.6569480134799992   21.4283067231599986    5.6777657507999999 Mg
   3.5163026872199996    1.7038735106400000   12.2190011143200010 Mg
   5.0394165762599998    3.1734881000100001    5.2108197242400003 Mg
   9.7784179495199997    6.8477291381700001    5.4679602463200006 Mg
   9.8020987725600008    3.5976046284900001    5.8871071864800006 Mg
   7.6653978436800001    1.8870773806800001   11.4169974141600008 Mg
   5.0506226800200000   21.5123935958099999    5.4077937263999996 Mg
   5.2165646379000004    7.2662901191099998    6.2879930193600000 Mg
   3.6027975981599996    8.9162662053599995   11.1826890770400009 Mg
   7.9207243367400002    5.6826791395200003   23.0399949686399985 Mg
   3.6012823073999995    5.1638168390399999    0.0849013869600000 Mg
   1.4127443388000001   10.7433092195999986    1.7966887660800002 V
   7.1361208769399997    1.6843429617299999    3.9792971462400004 V
   6.6960170094600002    1.7142740124300000    7.5600752104800009 V
   1.5970283627399999   10.8523960561800017    9.9495190547999997 V
   1.7363646340199999    3.4612783824599997    1.7773370971200000 V
   7.0307729297999995    5.4390748398300000    4.0526896269600003 V
   7.0637569333199997    5.2431448899599999    7.5246899644800012 V
   2.0134161678600000    3.4195471765200001    9.9326965608000002 V
   1.7605035682200001    7.0149123594899994    1.7838804672000002 V
   7.1902660921199999    8.8667400063600006    4.0471208013600002 V
   7.2466137647999993    9.1259773584299992    7.4822276692800012 V
   1.4580973436399998    7.2301359938400003    9.7313371084800000 V
   6.1276772565000002    0.0516149126100000    1.6692322701600002 V
   2.5284035903400000    1.6356565547999999    3.9725449452000001 V
   3.0068478379800001    1.7754281016300000    7.6258801663199991 V
   5.9478333868799993   10.6225083603000012    9.6569932867200006 V
   6.2731980284400004    3.5993057457599997    1.6353784512000000 V
   2.8043979445799998    5.2229468140200002    3.9812462352000004 V
   2.6968651596000002    5.4963098993699999    7.6782271269600004 V
   5.9323809450600002    3.8768247252000001    9.8461709330400016 V
   5.9160475202400002    7.2371127279599996    1.8280598169600002 V
   2.4897989152799997    9.0379499229900002    4.1136682672800005 V
   2.5606299484800004    8.8967356564499998    7.5648087122400005 V
   6.1349013171000006    7.3154502548999991    9.6102847620000009 V
  17.4483088064999983   10.6265996549999997    1.4026943548799999 O
   8.7560019387000008    1.5198083154000002    4.3328015546400005 O
   8.2653120273600003    1.4072546448899999    7.2089607563999998 O
   0.5782596215400000    0.2383932822300000   10.2138990501600002 O
   0.1302092874000000    3.4630440991199998    1.4524425302399999 O
   8.7090103054799997    5.5736784354600006    4.3315253654400001 O
   8.6927121199799995    5.2045144547400000    7.1833673620800012 O
   0.3364826470200000    3.1730789705399998   10.1331974858400002 O
   0.2367729910800000    6.5067304914900008    1.4752979186399999 O
   8.7303300940799993    8.5904268822000009    3.8500307819999997 O
   8.8485051536999997    9.5174711949600006    7.1429469696000005 O
  17.5109995567799999    7.4709409866300005    9.8751288261600010 O
   4.5306136544399997    0.1709084528100000    1.3023626803199999 O
   4.2784058411999997    1.6694420357699999    4.0519239134400005 O
   4.5275830729200006    2.0246094819899998    6.9978094524000003 O
   4.4648042243399999   10.7160913432800005   10.3316101012800008 O
   4.6839399357599998    3.3780528350099996    1.2263714143200000 O
   4.3722305306999996    4.8720213944099999    4.0977275039999999 O
   4.3554037553999994    5.8425195635099998    7.5260589674400000 O
   4.3540822809000002    4.3080471865799996   10.0785069777600000 O
   4.2421445809199998    7.3397396255400000    1.6309233907200000 O
   4.1754013088399997    9.1972089524700014    4.4159858870400006 O
   4.2276788400599994    8.7096342898800003    7.3195947583200001 O
   4.5778343432400002    7.7753548454400008    9.9054093153600000 O
   1.8678601565999999   21.4067951262899996    3.7287928080000001 O
   6.6599143261200000    1.8007725956399998    2.1049696699200000 O
   6.1476050919600000    1.9493727257700000    9.6162712495200005 O
   2.0927222575200002   10.7602988591699997    7.8719294440799992 O
   1.8327441742199999    3.3959468660399996    3.6872818538400001 O
   6.7460744635199994    5.4249706396799997    2.1521190600000000 O
   6.7258118545199999    5.4364477979699997    9.5003700667200004 O
   2.1709183086000001    3.5207313543900001    7.8632977644000004 O
   2.3129327682000000    7.2206614166400005    3.8579895619200002 O
   6.6554565521399995    8.8796383512299997    2.1236252356800001 O
   6.9674478717600001    8.9749655177399994    9.3382940383200008 O
   1.9175652174600000    7.1208338259599993    7.9322815915199998 O
   6.2168679754200005   10.7956993248900002    7.6037440845600006 O
   6.5129663617200002    8.9574806161799998    5.7971706530400002 O
   6.4626622324199996   21.3856065263699975    3.5974149307200003 O
   2.1204027433800001    1.6459063246800001    1.9716427036800002 O
   3.0027600768599996    1.6850104887600001    9.5326460517600005 O
   6.4555791291000002    3.4914247644600001    3.7963844287200001 O
   2.5789543948799998    5.2472792509200001    2.0207643861600002 O
   2.0696757422399998    5.3045143104600001    9.6177330662399996 O
   6.3772597403999995    3.5676735777899999    7.8545268640800003 O
   6.2767395801000001    7.1948862600300005    3.7598622141600000 O
   1.9957436488799998    8.9744702557500009    2.0911868265600000 O
   2.2891462272000003    9.0670196484899996    9.6093798278399998 O
   6.7394318516999991    7.1838182312100001    7.6734240148800001 O
   2.2543650183600001   10.7107941932999999    0.0946468317600000 O
   6.3390250781999997    1.6306824017700001    5.5691040412800001 O
   2.4968115399599999    3.5477338994099998   23.1486102712799990 O
   6.2232286726800004    5.2681879201499999    5.8064752324800004 O
   2.1756579971400001    7.1174315914199999   11.3946989083200005 O
   6.8681963269799997    0.0338500803600000   11.4661887069600006 O
   2.2608314335799999    1.8351610042499999    5.8793108306400006 O
   6.9464276173800004    3.8430823104899998   23.0419904644800013 O
   2.1360666211199999    5.3981834259600001    5.8305836066399994 O
   6.7306044020400000    7.3879523036099997    0.1433508523200000 O
   1.8637019168400002    8.8811887365899995    5.8510954475999997 O
