Mg12 V24 O60
1.0
  17.6196599999999997    0.0000000000000000    0.0000000000000000
   0.0000000000000000   21.5331299999999999    0.0000000000000000
   0.0000000000000000    0.0000000000000000   23.2034400000000005
Mg V O
12 24 60
direct
   8.0328382333199997    8.6646731144400011   11.0540027988000009 Mg
   9.5547187461599989    0.1288327167900000    6.0366533572800005 Mg
   3.4650647159400001    1.6886495877300001   11.9332043438400000 Mg
   5.3004694588200003    3.7736594993699999    5.9828445799200001 Mg
   9.6019746742800010    7.2083229331500007    5.1552010785600002 Mg
   9.6780739858199993    3.6558302120100001    5.6380878684000004 Mg
   7.7241241704600005    1.6280122936500001   11.3933995156800005 Mg
   5.1163968708000001   -0.0006459939000000    5.2580851315200006 Mg
   5.3273746796400001    6.8320960857899999    5.9378299063200002 Mg
   3.7279500431399999    9.3243836182499997   11.9707939166399999 Mg
   7.9377096889799992    5.5399360207499990   23.1897035635199984 Mg
   3.3015014121599999    5.4382350477600001   22.9314956832000014 Mg
   1.5424602757199999   10.6626030483599994    1.9505739801599999 V
   6.9765748556399991    1.9629816639300002    4.0079069877600002 V
   6.7183763579999995    1.7294118028199998    7.7021266701600002 V
   1.7269909749000001   10.7331025159800006    9.8754304708799996 V
   1.5735413559600000    3.7600074949500000    1.7792861860800000 V
   6.8365514176200000    5.4665941799700004    3.9658391510400004 V
   7.4042921021400003    5.1550959213900001    7.6811043535200003 V
   1.5966407302200001    3.5257485736799996    9.7962603336000011 V
   1.5994422561599999    7.0656228806399994    1.8193121200800002 V
   6.8780457169200000    8.9478983733300002    4.1419068537600001 V
   6.9831293691600003    8.9867656729799990    7.5202349040000005 V
   1.7088603447599999    7.3135553394599997    9.8505331797599993 V
   6.3429542623800002    0.0952195008600000    1.7039910232800002 V
   2.8228104892799997    1.9258585478100001    3.9089675196000000 V
   2.7603135552599998    1.9317801585600001    7.5489143558400009 V
   5.9651535126599997   10.6169097464999993    9.9529763673599998 V
   5.8503614277600002    3.5964203063399998    1.8444646490400003 V
   2.7390818649600002    5.3719130073599999    4.0352174366400000 V
   2.5568064822599998    5.3425202849100000    7.5546688089599998 V
   6.1129824600599996    3.6188578277999999    9.9949049834399997 V
   5.8672763013600004    7.3576336565700000    1.7585887175999999 V
   2.6913678256800000    8.8297030227600004    4.0879124488800000 V
   2.8814663374199996    8.8851077662500000    7.6656508624800006 V
   6.0548375820599993    7.0172594706600000    9.5769182152800010 V
  17.4960052261200012   10.7773961643899998    1.8718911151199999 O
   8.5366547913600002    2.3810689160099998    4.0182557220000001 O
   8.2797777682199989    1.3695070680000001    7.3056262874400000 O
   0.2192414293800000   21.5213944441500011    9.7863988715999994 O
  -0.0113823003600000    4.0409717751900001    1.4989654274400002 O
   8.4777875073000004    5.8624807750199999    4.2114707668799998 O
   8.9932154212799986    4.9117500192600003    7.2368976981600008 O
   0.0746897387400000    3.0501247982399997    9.9770615380799992 O
   0.0223064895600000    6.8280047910900006    1.3139644003199999 O
   8.5144540197600005    8.4880583821800002    4.1360131800000000 O
   8.5392625010399996    9.1627990107299997    6.9792931072800011 O
  17.5793990768999997    7.2692616910500005   10.0204055640000007 O
   4.7398294972800006    0.2980831185900000    1.3882618152000001 O
   4.4659318825799996    1.7354410792199999    4.3133802753600001 O
   4.3873834382999997    2.2203671668200000    7.2539290231199995 O
   4.3021747625400000   10.7297002814399995   10.2136902192000001 O
   4.2408759653999999    3.4406711770500000    1.5402675506399999 O
   4.3656231582000000    5.2380200050200001    4.6374163149600003 O
   4.1775861466800004    5.2114696557299993    7.1776825192799993 O
   4.4970129628199995    3.9610838628900003   10.2858065107200005 O
   4.3005537538200000    7.5183354057600003    1.2976987888800000 O
   4.2306565626000001    9.5380568672399999    4.1619314224800004 O
   4.4831286707400002    8.3896950443399998    7.3086195311999997 O
   4.4819833928400001    6.8062778629199991   10.1719008237600015 O
   2.0911893470999998    0.1867999027500000    3.6826411658399998 O
   6.7420043220599997    1.9453244973300001    2.0874046658399998 O
   6.4424524824000002    1.7999543366999999    9.6672492071999994 O
   2.3307991034400000   10.8172970542800009    7.8451526743199995 O
   2.0674028061000000    3.5908216925399996    3.7934143884000000 O
   6.5322775090800000    5.4853926024600002    1.9654009783200002 O
   6.8939386502400000    5.2916159655900001    9.6604505992800007 O
   1.8497471461200001    3.4521052690799996    7.8022495137600005 O
   2.3500221524999998    7.1006357500199995    3.7464274224000000 O
   6.3917254812600000    9.0773555508900010    2.2636811995200001 O
   6.7493517202800000    8.7828253987499991    9.4452618967199999 O
   2.0443915301400000    7.1376296673599997    7.9702888262400009 O
   6.2387868324599998   10.8000059508900002    7.8759900460800001 O
   6.0023486149199998    8.9106891246900002    5.7106450252799998 O
   6.6233006726400001   21.5011102356899997    3.6929899000799997 O
   2.2756319479799996    1.9347086642400000    1.9961687397599999 O
   2.3417056729799999    1.8648551905199999    9.3853506146400001 O
   6.2150707701000005    3.6966785596200000    3.7917901476000000 O
   2.3691042442799999    5.3495400852900001    1.9481840258399998 O
   1.9472719642200000    5.3823565754100002    9.6307966029600003 O
   6.4924042184999999    3.5821653742800001    7.8998895892799998 O
   6.0271570961999998    7.2502910035200001    3.7145690992800002 O
   2.2219977029400000    8.9290353514500005    2.1549266762400001 O
   2.5887685454999998    9.0563392160099987    9.5655021227999999 O
   6.5724855731999998    6.9155154314100002    7.7058856274399998 O
   2.1875512676400000   10.7753935832999996    0.0195372964800000 O
   6.4155296419200001    1.8073617334199998    5.7151696960800003 O
   2.2884766801200001    3.6008561311200000   23.1781946572800024 O
   6.5293526455200004    5.2036746626700001    5.8532069606399997 O
   2.5882223360399998    7.3588179787199994   11.6469899114400004 O
   6.7621435934400003   21.5151067701900018   11.5561948507199990 O
   2.0003599998000001    1.8332660888100001    5.7027326522399999 O
   6.5623190293800002    3.6328543622999998   23.1620914699200000 O
   1.8845283549599998    5.2712886908699996    5.7072109161600002 O
   6.5413516339799997    7.1623497006000010    0.0644127494400000 O
   2.1202970254199998    8.7626273228099993    5.8669433971200009 O
