Mg12 V24 O60
1.0
  17.6196599999999997    0.0000000000000000    0.0000000000000000
   0.0000000000000000   21.5331299999999999    0.0000000000000000
   0.0000000000000000    0.0000000000000000   23.2034400000000005
Mg V O
12 24 60
direct
   7.9702532009999993    9.1131005466899992   11.3931906847200004 Mg
   9.7191630329400009    0.3259685219400000    5.5671317488800005 Mg
   3.4099151801400001    1.5423535025099999   12.0282920409599985 Mg
   5.3685870643799998    4.0078753543800003    5.4265653093599999 Mg
   9.6890686536599997    7.2503125366499992    5.1746919681600003 Mg
   9.7146523999800003    3.3964636611600003    6.0977944216800006 Mg
   8.0963042486400010    1.9332013451399999   11.2238983864800002 Mg
   5.3254365170400000    0.0732557082600000    5.5369208700000003 Mg
   5.2991127450000004    6.8920227865800001    6.1794937339200002 Mg
   3.5520177380400000    8.7070718474100008   11.2581930707999991 Mg
   7.9950616822799994    5.4187475651100003   23.0576063795999993 Mg
   3.5317551290400000    5.5205777368800000   23.1316021497599991 Mg
   1.5850646135999999   10.8402083045999991    1.7711185751999998 V
   7.3539174942000001    2.0697213893399997    3.9654214891200001 V
   6.8996826593999998    1.7512033303799999    7.4831094000000000 V
   1.6379940722400002   10.7219052883800003    9.7000356679199999 V
   1.7553762471600001    3.9057437187899997    1.7304893517600002 V
   7.1701268207400002    5.5833468108300002    3.7804204619999999 V
   7.1334250689599994    5.2543636506900002    7.4765196230400006 V
   1.8485137699200000    3.3624843820199999    9.7666991510400010 V
   1.8771280977600000    7.2882323785800001    1.8873910130400000 V
   6.9214429394999994    8.9912660971499996    4.0435938784800003 V
   7.1702853976799998    9.1104089054399999    7.6916155118400003 V
   1.3920940972799998    7.0932498864299998    9.8418782966399991 V
   6.0008861831400004    0.1975664677500000    1.7927441812800000 V
   2.4721087766400003    2.0419436516400000    4.0203208281600000 V
   3.0106536845399998    1.7084600673299999    7.6579009135200007 V
   5.8568630823000003   10.7553031730100006    9.7447486968000003 V
   6.1365751847999999    3.7341677389500001    1.7264287497599999 V
   2.7275586073199998    5.4351342770400004    4.0693729003200003 V
   2.4421024956599999    5.3820335784599997    7.4844319960799996 V
   6.0160038514199998    3.5633669517900000    9.8355205540800004 V
   5.9489610451199999    7.3326336926400000    1.6864028157600000 V
   2.7000190787399996    9.1294441923600012    3.8853232142400005 V
   2.6843904403199996    8.8741689362099994    7.6457191075200006 V
   6.0801746531400003    7.1434866787199995    9.7492501641599993 V
  17.5333060463399981   10.5952904839799995    1.2323579018399999 O
   8.9471047710599994    2.0560909180500002    4.4844592384800004 O
   8.5905357116399994    1.5413414454000001    7.3230984777600003 O
   0.1778704677000000    0.2434320346500000   10.1402049247199990 O
   0.0888383257200000    4.3155191826900001    1.3159366927200000 O
   8.7654108371399992    5.8010252219999998    4.0983075900000001 O
   8.7650760636000005    4.8221075990699998    7.3446544735200003 O
   0.2535292877400000    3.0060895473900002   10.0226098908000001 O
   0.2757652986600000    7.2907948210500004    1.5442353388800001 O
   8.5622913966600009    8.5134459424499997    4.2471808610400004 O
   8.7431043475799992    9.2202494015699994    7.2963449114399994 O
  17.4542994908999987    7.0037366650199999   10.2639952771200011 O
   4.3465586860799998    0.3336127830900000    1.4346686952000001 O
   4.1211679953599996    2.3973694954200000    4.3552160776799997 O
   4.6247026388399997    1.5934085537399998    7.3289921515200005 O
   4.3747677617400003   10.0638959018400005   10.2693088648800011 O
   4.5092938658399992    3.6049043595599999    1.4144120920800001 O
   4.4156806122599992    5.5030497690600004    4.6371842805599996 O
   4.1566187512799999    5.5216759265100004    7.2802185206400001 O
   4.3114250840399997    3.7416397350600001    9.9555519492000002 O
   4.2779301103799998    7.4751614801099997    1.4087968596000000 O
   4.2891890731200002    9.4428158332500001    4.2595947014400002 O
   4.2262692672600002    8.4925372732200000    7.5688461108000000 O
   4.4589544972199997    6.8341632662700000   10.0101032366400009 O
   1.8586626940800000    0.1149653810700000    3.8017676267999998 O
   6.7135485711599996    2.0243295512999997    2.0238968505599999 O
   6.5937525028199993    1.7742007132199999    9.6525150228000012 O
   2.1974358969000001   10.8624950941499989    7.8727183610400004 O
   2.1665838722399999    3.7496715925500004    3.7100212250400002 O
   6.6904491969000004    5.5553968080899994    1.8633290457600000 O
   6.7192573410000005    5.2899579145799995    9.4557498516000003 O
   2.0783446149600002    3.3557875785900002    7.6878101476800005 O
   1.9574737473599999    7.2455537149199998    3.8098888308000003 O
   6.6297318485400005    9.0724244641199991    1.9028677075200000 O
   6.7648746407399996    8.9943453347400002    9.6861368073600005 O
   1.6358973326999999    7.1135125617599995    7.8855730668000001 O
   6.2210614545000000   10.6897993915500003    7.9086372861600003 O
   6.3098116819199994    8.8797029506200005    5.7808354312799999 O
   6.6492544318200002    0.2269376570700000    3.7740395159999998 O
   2.1892603746599999    1.9272151350000000    2.0152883743199999 O
   2.7689119493400001    1.6193129091300000    9.5578913944800004 O
   6.5365414667999993    3.7765234056600003    3.7151027783999999 O
   2.5616518887599997    5.5743459624900007    2.0471699008800002 O
   2.1202794057599998    5.1700829798700001    9.4579077715200004 O
   6.3206125335000003    3.4162310745000002    7.7501577909600003 O
   6.3092830921200003    7.1972549043300003    3.5610087333600000 O
   2.4577663734000001    9.1425363354000009    2.0239432574400000 O
   1.8513857745000000    8.8895651241599989    9.5516496691199997 O
   6.7860887113799997    7.1296193429999999    7.7133803385600004 O
   2.4472826756999999   10.8413064942300004   23.1672890404800000 O
   6.4344355370999997    2.2135626977400000    5.6476476856800000 O
   2.4154087107600004    3.8166826931099997    0.0190732276800000 O
   6.5990384008199996    5.5787602541399997    5.6934976831200004 O
   2.3471325282600000    7.1282842889399998   11.5167954096000003 O
   6.8885822735999991   21.5261101996199997   11.5171898680800009 O
   2.0893216631400002    1.3675044869099999    5.9296854988800005 O
   6.8114786414399999    3.7370101121100001   23.1096981023999994 O
   1.9670236030799999    5.5749919563899999    5.7445684545599995 O
   6.8308955067599992    7.2986328803699996   23.1345953935199979 O
   2.1628485043199999    9.1092245832900005    5.7961497016800001 O
