Mg12 V24 O60
1.0
  17.6196599999999997    0.0000000000000000    0.0000000000000000
   0.0000000000000000   21.5331299999999999    0.0000000000000000
   0.0000000000000000    0.0000000000000000   23.2034400000000005
Mg V O
12 24 60
direct
   8.1505551817799997    8.9763005717999995   11.5686086911199997 Mg
   8.7441262878600003    0.0709731964800000    5.8858309972800003 Mg
   4.4153458387199995    1.8687096207900000   11.5777044395999997 Mg
   4.3845466730400000    3.6289783989000002    5.6817103356000001 Mg
   8.7233527087200002    7.2072678097800003    5.7905576726400003 Mg
   8.7851977153199989    3.6008130648600001    5.8564786456799993 Mg
   8.2080657520199996    1.8238130447399998   11.4331934152799999 Mg
   4.4066417266799993    0.0794787828300000    5.7407398869600001 Mg
   4.3545756313800004    7.1616606404400001    5.5994773442400003 Mg
   4.4338288620600004    8.9209819608299998   11.5862897123999993 Mg
   8.8032578668199992    5.4031145127300002    0.0380304381600000 Mg
   4.4415462731400002    5.4648930627000007    0.0935562700800000 Mg
   1.7609440597200001   10.7228096798400010    1.7694015206400002 V
   7.1359094410199999    1.9221117831899999    4.1744148731999999 V
   6.8622585015599995    1.7821895044500000    7.6875781132799998 V
   1.9271150731800000   10.6815091364999990    9.9452728252800000 V
   1.7814533439600000    3.5655633310500003    1.7948788977600001 V
   6.8881065427799992    5.5047293531999992    3.9807125560799999 V
   7.1864954848800000    5.2586487435600002    7.5647391019199999 V
   1.9864404684000001    3.5904556293300001    9.9496582754399991 V
   1.7349726808799999    7.1495374882500000    1.6800218697600000 V
   7.0755621055199995    9.0665674527599993    4.1055702667200000 V
   6.7526994556799993    8.9697114340199988    7.5448769572800005 V
   1.6331486657399998    7.1166133324800001    9.7966083852000008 V
   6.2567765053199995    0.1198103353200000    1.7607930444000000 V
   2.5024850704799997    1.9122065433900002    4.0373521531200005 V
   2.8640757330000000    1.7805314534399999    7.5314189620800001 V
   5.9631624910800003   10.7467975866599996    9.8915800651200012 V
   6.1353946675800000    3.5841894884999999    1.8294056164799999 V
   2.7728939924999998    5.4755519620499999    3.9752829511200001 V
   2.5037536860000000    5.2906900410000004    7.3717792948799996 V
   6.0588724842000001    3.6836079497099998    9.9961115623199994 V
   6.0820775764200006    7.2488267506800002    1.6624104587999999 V
   2.8366243027199998    9.0602797788000000    4.1281472138400002 V
   2.8543144413600001    8.9439793436699997    7.5828841919999999 V
   6.1183035973800006    7.2147613390200007    9.8250325992000000 V
   0.1920895333200000   10.6913067106500002    1.5562083139200000 O
   8.7511565321999996    2.0240496206100000    4.2783198775199995 O
   8.4871083074399998    1.6560484289100001    7.7233346143200006 O
   0.3229683678000000    0.0151162572600000    9.9635339325599990 O
   0.1987673844600000    3.5475185681100001    1.5178066207200001 O
   8.4977858213999991    5.4888163701299995    3.9243746037600000 O
   8.7354221758200001    5.0965904071799999    7.6046026118400007 O
   0.3735191723400000    3.4417263004200001    9.9670608554399998 O
   0.0909174456000000    7.2172591821000003    1.6940599509600001 O
   8.6321885878800000    9.1391556339900006    4.1304443543999998 O
   8.3208139563600003    9.0446036601599999    7.4481186124800001 O
   0.1030221520200000    7.2538224368400002    9.8939004091200005 O
   4.6074706113600001    0.2557705181400000    1.7049887712000000 O
   4.1230356793200000    1.8586321159500001    4.0641521263199998 O
   4.5119720541600001    1.9465303526100002    7.1803973217600001 O
   4.3549808835599997   10.5033009526200001    9.9720495950399997 O
   4.5892871222399991    3.4733369352599999    1.7758984838400003 O
   4.3190720164799998    5.1464180700000002    3.9582516261600000 O
   4.0781584053000000    5.5336914130500006    7.2209801383200007 O
   4.4886436243199999    4.0195678439700000   10.1031026241599999 O
   4.5106329599999997    7.3553511447900002    1.6714830038400001 O
   4.4670419211599999    9.2565542587500005    3.8007466754400001 O
   4.4405243328599999    8.7345265881599996    7.4696514047999996 O
   4.5449560576800003    6.7639867956000002    9.8238724271999995 O
   2.1544086871800001    0.1371229718400000    3.7140586236000002 O
   6.7515541777800001    1.8979516113299999    2.0067727118400001 O
   6.1757789282999997    1.8948723737400002    9.5031080726399999 O
   2.3623382948399998   10.7545064472000007    7.9395210647999992 O
   2.0190720787199998    3.6773418088800001    3.6067195101600000 O
   6.4218903391800000    5.4456424444799998    2.2028881867200001 O
   6.8201298945000000    5.3601128521200003    9.6436513087200009 O
   2.3959566061199999    3.5917476171300002    7.9585014787200006 O
   2.3940360631799997    7.2336674271600003    3.8311663852800004 O
   6.5094952887000002    8.9855382845699996    1.9731741307200001 O
   6.5893828271399997    8.8989105025799997    9.5479603221599998 O
   2.0080245518999997    7.3170221733900007    7.5471276909600009 O
   6.3009313732799992   10.6921034364600001    7.9725627633600000 O
   6.4794537684000000    9.0910721547000009    5.7845015748000002 O
   6.7253889826799993    0.0754305543900000    3.6227994940800001 O
   2.1072760966799997    1.8749972947500000    2.1552747278400002 O
   2.5820378353800000    1.7495883456300001    9.5958754257599992 O
   6.5768376292199999    3.5733152578500000    3.6710626492800000 O
   2.3038762629600003    5.4610816986899993    2.0365427253599999 O
   2.1563292301199999    5.4837991508400004    9.3586898620800003 O
   6.5683449530999996    3.6651325241700001    7.7439856759200003 O
   6.5518529513399999    7.2646536012299991    3.7153116093600005 O
   2.1689977656599999    8.9804779990199997    2.1437890250400002 O
   2.2913839240199998    8.8669984039200003    9.4769113888799996 O
   6.4507337225999999    7.1993220848099995    7.9313302504799994 O
   2.3173200635400000   10.6848898379100010    0.0428103468000000 O
   6.6049938459000002    1.8762246831600000    5.8383103521600006 O
   2.3961328027200000    3.8311314233400000    0.0234586778400000 O
   6.7153281568200001    5.3088209364600001    5.8205597205599995 O
   2.1503033063999997    7.1536072498200003   11.5483984948799989 O
   6.6194067277799995    0.1770023286000000   11.4553991073599999 O
   2.1591659953800000    2.0169436877100000    5.9580401025600001 O
   6.6003070163400004    3.6840816785699997    0.0621388123200000 O
   2.2232486987999995    5.1758969249700000    5.6117519640000006 O
   6.5188865674799992    7.0829355171600001    0.0201869928000000 O
   2.5232410299599999    9.0826742340000006    5.7753362160000004 O
