Mg12 V24 O60
1.0
  17.6196599999999997    0.0000000000000000    0.0000000000000000
   0.0000000000000000   21.5331299999999999    0.0000000000000000
   0.0000000000000000    0.0000000000000000   23.2034400000000005
Mg V O
12 24 60
direct
   8.2200295011599991    9.2363777159399998   11.1844061316000012 Mg
   9.7392142060199998   21.0727086143399980    6.2387321162400005 Mg
   3.5923667594399999    1.8211429366199998   11.3985042724800003 Mg
   5.4006724652400004    3.8046026071800001    6.2176401892800000 Mg
   9.4250732878800001    6.8613165431999992    5.4281431432800007 Mg
  10.0299914550000011    3.3674585350499999    5.8884297825600003 Mg
   7.9459380701999995    2.2555953674999998   11.9903080096799997 Mg
   5.1231452005799998    0.0637165316700000    5.2521914577600004 Mg
   5.1020192282399996    7.2608207040900004    6.4033373196000003 Mg
   3.4364680077599998    8.8359691635900006   11.4392959199999993 Mg
   7.6022842215599997    5.6073777839099996    0.1073623168800000 Mg
   3.3620425639200002    5.4422402099400005   22.8488914368000025 Mg
   1.4549434244999999   10.8343082269799993    1.6914379622400002 V
   7.3638549824400004    2.0917713144600003    4.0655675361600006 V
   7.2124844833799999    1.8717888583800000    7.5737652400800002 V
   1.6736915033999999   10.8309921249599999    9.8822986891200006 V
   1.7928356443200000    3.7881728289900001    1.7545049121600000 V
   6.5748289879800002    5.4907112855700007    4.0666348943999999 V
   7.2533268552600001    5.6900650031100000    7.7036813006400005 V
   1.8049227310800000    3.6314977751099997    9.8245453269599992 V
   1.8246038912999998    7.2106700443199996    1.7542496743200002 V
   6.9086158270199993    8.8090096848300004    4.0677254560799998 V
   6.9574222852199998    9.1665457753500004    7.6325163501599995 V
   1.3759016297400000    7.2117897670800000    9.7163012793599997 V
   6.3061467926399999    0.0838930744800000    1.7541568605600000 V
   2.4666466820399999    1.8593642423699999    4.0627367164799999 V
   2.8571512066199998    1.8156950547299999    7.4755914854400007 V
   5.8207427792999997   10.8303030647999989    9.7803891806400003 V
   5.8747470371999997    3.4372043431199999    1.8055292767200000 V
   2.9846470663799995    5.4524899798200002    3.8337651705600004 V
   2.5297779238200002    5.4758534258699996    7.5465244015200001 V
   6.2743609259999999    3.8189436717600000    9.8584455528000010 V
   5.6566508857199995    7.2739559133900000    1.7991715341599999 V
   2.4490975006800002    9.2684405465099999    3.9057190380000000 V
   2.4891469878599999    8.9229630087899992    7.6126310020799997 V
   6.1540186482000001    7.4257644798900007    9.9516537712800002 V
  17.4674085179400009   10.4388953607900010    1.4823981712800001 O
   8.8970473170000002    2.7255343966199996    4.3378599045600001 O
   8.7550857163800000    1.5944636771100000    7.3144203912000005 O
   0.4676081567400000    0.4889527829100000   10.0456044998399996 O
   0.2043704363400000    4.2441153236100000    1.5923360700000002 O
   8.2417721616000001    5.7180796052399998    4.2829605655199998 O
   8.7185954005199999    5.9496468852600000    7.3115663680800012 O
   0.2336366916000000    3.3847496384399998   10.1815998616800005 O
   0.1835616178800000    7.3363373909999998    1.6433372311200001 O
   8.5189822723800006    8.5494708689400003    4.5179418024000002 O
   8.5585560287400000    9.1643278629600005    7.3417076366400007 O
  17.3146989247199983    7.2579783309300003   10.2868042586400001 O
   4.6146594326400008    0.3190994534700000    1.4322555374400001 O
   4.1312816801999999    1.6203249662399999    4.1152461012000003 O
   4.3914888190800001    2.1755567232900002    6.9766943220000011 O
   4.2236263182600000   10.5115050751499997   10.2399101064000000 O
   4.3105969600199998    3.0798405176399997    1.4230437717600000 O
   4.5601265849399999    5.1073785053099998    4.6341214264800001 O
   4.2805730593800000    5.8468046563799998    7.4130814180800000 O
   4.7031101258399994    4.0639260917700000   10.1709958896000003 O
   4.2161379627599995    7.8806949174000005    1.0823012553600000 O
   4.1093804428200000    9.2014725122099996    4.2715212696000000 O
   4.0418442860399999    8.7939364938299995    7.1902587837600009 O
   4.5644962606199995    7.4944120983299998   10.5174000453600005 O
   1.5231315086999999    0.0102282367500000    3.8203535822399997 O
   6.9850146727799993    1.8598810374900001    2.1570613927200002 O
   6.7575096228599998    2.0327705382599999    9.5222277072000008 O
   1.9391493009600000   10.7980033698000000    7.8863619837599996 O
   2.2293627208199998    3.6919197378899997    3.5804764195200001 O
   6.1171406998200002    5.3805262593599998    1.8479915719200002 O
   6.8501185558200000    5.7623301873899999    9.5788441008000014 O
   2.1864588487200001    3.6366011269200000    7.9056904492800006 O
   2.3913578748600002    7.1364022789500003    3.7500935659200003 O
   6.6137860562399995    8.8729846140599999    2.0536900675200003 O
   6.8455726835399995    9.1367654565600009    9.6375952108800007 O
   1.5006312028800000    7.0858424897100001    7.7094357537600002 O
   5.9352353299800003   10.9694070846000002    7.7238218865600006 O
   6.2420640892199994    8.9521619330700002    5.7996998280000005 O
   6.7325073253199994   21.5893960686900002    3.7737378712800003 O
   2.0585577367800001    1.8580937877000001    2.0822999090400001 O
   2.7633265171199999    2.0155225011300000    9.5350360060800003 O
   6.4470159743399993    3.5739827848800001    3.6893005531200003 O
   2.6481644193600000    5.5284588624600008    1.8744899004000000 O
   2.2518454069799998    5.5737430348499997    9.5795402040000006 O
   6.6820446190800000    3.8538058092299998    7.7685813223200002 O
   5.8835568671999994    7.2779610755699995    3.7491886317600001 O
   2.1863002717800000    9.0917181486000000    2.0412298202399999 O
   2.1005453865599999    8.9358182874000001    9.5280285671999998 O
   6.4658161515600003    7.3726853144400009    8.0610374800800013 O
   2.1806619805800000   10.5582965666399993   23.2100993872799997 O
   6.3974518707600003    1.6935160751099998    5.7365864711999999 O
   2.3396617924199998    3.5616443013899999   23.0728974465599990 O
   6.3310433722199999    5.6648712410100002    6.0478374153600001 O
   2.3124041784000000    7.3199076128099998   11.4560952105600009 O
   6.8727774385800000   21.5299000304999986   11.5857096263999999 O
   1.9649621028599999    1.4966171343899999    5.9186406614400004 O
   6.5478004295399996    3.4309382022900001   23.2566918947999994 O
   2.1069413231400000    5.3959224473100003    5.6183649443999997 O
   6.6728647762200000    7.2989128110599992    0.1312386566400000 O
   1.9174242601800000    9.2415672002699996    5.8580564796000001 O
