Mg12 V24 O60
1.0
  17.6196599999999997    0.0000000000000000    0.0000000000000000
   0.0000000000000000   21.5331299999999999    0.0000000000000000
   0.0000000000000000    0.0000000000000000   23.2034400000000005
Mg V O
12 24 60
direct
   7.8696625620600003    9.0327604386600004   11.5893061595999995 Mg
   9.7670356491600003    0.3303397473300000    6.3571856774400004 Mg
   3.2120640180000000    1.8793254538800002   11.7928003284000003 Mg
   5.4580068388799994    3.6968723577900002    5.9739344589599996 Mg
   9.7031291423399999    7.0657090131599993    5.2440238468800002 Mg
   9.7612035417000005    3.5999517396599998    5.7614837623200001 Mg
   7.9381149411599994    1.8455830391699999   11.0333053303200010 Mg
   5.3429152197600001    0.0829240836300000    5.1763162089600003 Mg
   5.2174632405599999    6.9137497147499998    6.2995715359200002 Mg
   3.4267595750999997    8.9312963301000003   11.6732097986400003 Mg
   7.6751415156600000    5.2250785938900002    0.1163652516000000 Mg
   3.3946036955999999    5.5463098272300000   23.0431042296000008 Mg
   1.4005515340800001   10.6685031259799992    1.6825046378400002 V
   7.3299547565999994    1.9167285006899999    4.0952911428000007 V
   7.0154614452599997    1.8390369676499998    7.7574900780000000 V
   1.9438008912000000   10.8458930509200009    9.8125027415999995 V
   1.7451392246999999    3.5758131009299996    1.8485252510400001 V
   6.9350100776999994    5.5973218121999997    3.8963216448000004 V
   7.2886542735599997    5.4305261872199990    7.6366697659200007 V
   1.6931612276999999    3.5422644843900004    9.8126651656800004 V
   1.6810389016200000    7.0471259219699993    1.9340531308800000 V
   7.1428515870600000    8.8086866878799999    3.9812694386400005 V
   6.9705313122599994    9.1407275524799996    7.6570191828000000 V
   1.7902103149799999    7.3073753311500003    9.7693211397600006 V
   6.1646256835199997    0.0874460409300000    1.9813881484800000 V
   2.5852622331599999    1.5430856289300001    4.0657763671199998 V
   2.7461121092999998    1.8838474111799999    7.5529517544000004 V
   5.9214919951800002   10.7182015900199996    9.9157580496000008 V
   5.8824644482799995    3.3997151637899998    1.8905002740000001 V
   3.1247233633799998    5.2667236673100000    3.9571610644800002 V
   2.4347903367599999    5.2934032153799997    7.5519772099199995 V
   6.0599472834599997    3.8306146282199998    9.7700404463999995 V
   5.8450402904399992    7.2310188521700001    1.5758384241600001 V
   2.5534939861799999    9.2331692795699993    4.0393708524000003 V
   2.7435924979199999    8.9603445224700007    7.6174573176000004 V
   6.0700962076199998    7.0863162185700004    9.7910627630400011 V
  17.3860056887399992   10.5747048117000002    1.2963761928000002 O
   9.0069235167600006    2.0958410760300001    4.3768648872000000 O
   8.6561513254799998    1.8095365795500000    7.3788099371999998 O
   0.1077266012400000    0.3659124780900000   10.3630043555999993 O
   0.2103258814200000    3.4639915568400004    1.4128806650400001 O
   8.5925267332199997    5.8105859317199995    3.9562329268799998 O
   8.9239349181600005    5.1186187991700001    7.1182817128800009 O
   0.1859578916400000    3.3934705560900000   10.5115063715999995 O
   0.0831824148600000    6.7667215031100003    1.4730703884000000 O
   8.6937340602599988    8.5009351939200002    4.4468232588000003 O
   8.5885799293799998    9.3277427865299991    7.1581220193600004 O
   0.1610613120600000    7.7643514160099993    9.9347848703999997 O
   4.5081662075999995    0.4237719984000000    1.8233495186399999 O
   4.2521701674600001    1.4476507967699999    4.2829837689600003 O
   4.2408583457399995    2.3330285029800000    7.1038259697599999 O
   4.2876561627000003   10.6543989258299998   10.3330023076799993 O
   4.3031262241799997    2.9034195835500003    1.6840592683200002 O
   4.7204126319599995    5.2788252863700000    4.7342210666400000 O
   4.1044293183599994    5.4285020729999998    7.3451881526400005 O
   4.4503032441600006    3.9348995768100004   10.2304895097599999 O
   4.2007912388999999    7.3396965592800001    1.2140735911200000 O
   4.2298108189199999    9.4670621376300002    4.0335699923999995 O
   4.3049762884799998    8.5635750690899997    6.9792931072800011 O
   4.4554129455599991    6.7788446552999995   10.1121983726400000 O
   1.7143224393599998   21.4446934350900023    3.8397980649600001 O
   7.0676861175000001    1.7904582263700000    2.1173603068800002 O
   6.6000427214399995    1.9594071643500002    9.6142061433600006 O
   2.3160338283600002   10.8205054906499996    7.7042613866400007 O
   2.2992246727199999    3.4860845482200000    3.8119307335200006 O
   6.2041465808999998    5.4020163230999998    2.0068655255999999 O
   7.1000710525799997    5.4628258822199998    9.4871905127999998 O
   1.9153627599599998    3.5209897519499997    7.8135495890400009 O
   2.3890673190599996    7.2202092209100002    3.8915185327200001 O
   6.8790676571999994    8.8865074196999991    2.1057353834399999 O
   6.6062272221000002    8.9796382069499998    9.6244852672800008 O
   1.9590418971000001    7.1925822151199998    7.7619451384800007 O
   6.0155809795800002   10.7708070266099991    7.9560419140800009 O
   6.4333431181799998    9.1716275940299994    5.6750509483200000 O
   6.9595542640800003    0.0255598253100000    3.7950850360800001 O
   1.9784587624199999    1.6286582875499998    1.9475807364000000 O
   2.5430102884800001    1.8673315004700002    9.6056904808799999 O
   6.4702210665599997    3.6998869959900000    3.7943193225600003 O
   2.5702855221599998    5.3159699356200001    1.8900826120800001 O
   2.1868817205600002    5.4041911692299998    9.5534131305599992 O
   6.4312287589800006    3.6906492832200000    7.8121341792000001 O
   6.1794966765600003    7.2848732102999998    3.5971828963200001 O
   2.2370977515599999    9.0257406382799985    2.0279110456800002 O
   2.7310649196600001    9.0165029255100002    9.5777535391199997 O
   6.4560020009399999    7.2516045244499994    7.7447281859999997 O
   2.1406653523800001   10.6183093999500002   23.1506985808800003 O
   6.5534915797200002    2.0138859832499998    5.7074893574400001 O
   2.5076828701800000    3.4948485321299998    0.0206278581600000 O
   6.6668564721600001    5.3167235951700000    5.8702846924800003 O
   2.3258655986400001    7.2404934293700007   11.5361934854400001 O
   6.7887316603799999    0.1536388825500000   11.5157976616800006 O
   1.8436155044400000    1.6128745032599998    5.9075958240000004 O
   6.5240843671800004    3.3839959788899998    0.1589203605600000 O
   2.1759751510199998    5.1330459962699999    5.5971105933600001 O
   6.7670418589199999    7.1022507347699992    0.0392138136000000 O
   1.7898050628000000    9.2117222820899993    5.8855061491199994 O
