Mg12 V24 O60
1.0
  17.6196599999999997    0.0000000000000000    0.0000000000000000
   0.0000000000000000   21.5331299999999999    0.0000000000000000
   0.0000000000000000    0.0000000000000000   23.2034400000000005
Mg V O
12 24 60
direct
   7.9001798131800003    8.8251595323299998   11.9265913634400018 Mg
   9.7232860333799991    0.0237941086500000    5.7628295618400003 Mg
   3.3421323481199998    1.7815219774200000   11.8938977164800015 Mg
   5.3427037838400002    3.7135820666699999    5.9909889873599997 Mg
   9.7641812642399994    7.3931633210700003    5.4663824123999998 Mg
   9.7903288396800008    3.8693096628299997    6.0005720080799998 Mg
   8.0093864658600005    1.8701954067600000   11.0633073782399993 Mg
   5.4019234611000000    0.1088715052800000    5.4197667014400004 Mg
   5.1544905757200006    7.3339902798299992    5.8328575437600003 Mg
   3.2154469927199996    8.7803060225399996   11.3985970862400006 Mg
   7.9771601077199996    5.2859742855300000    0.5017743900000000 Mg
   3.6519740692200000    5.4479895556499995   22.7513905819199991 Mg
   1.4316149946600001   10.8859016064600009    1.9060465787999998 V
   7.1710606627200004    1.7778398121899999    3.9757006130399999 V
   7.1210736873000000    1.9115174832300001    7.6377371241600001 V
   2.0553685783200000   10.8637009494300010    9.6972048482400002 V
   1.7810657114399999    3.9874404140100004    1.6185327537600001 V
   7.0262270575199999    5.6102201570700005    4.0755450153600004 V
   7.4105647010999993    5.5710298604699995    7.4685144362400004 V
   1.4345398582200000    3.6076606002000000    9.9050148568800012 V
   1.8091338298200001    7.3147827278699991    1.6049587413599999 V
   6.9588318580199999    9.1287766653300011    4.1234833224000003 V
   7.3233297644399995    9.1471013589600005    7.7240307175199998 V
   1.3719724455600000    7.3185725587499997    9.6926105671200009 V
   6.1267962735000001    0.0307923759000000    1.7029700719200001 V
   2.6288885113200000    1.9204321990500000    3.8315376403200001 V
   2.8152164158200002    1.8903719495700002    7.6750482556800002 V
   5.9079953356199999   10.6337917204199996    9.7385997851999999 V
   6.0882444574199992    3.5525357873999996    1.9347724375199999 V
   2.7841529552399997    5.6312364919500002    3.9359763237600003 V
   2.2179804204600000    5.2844023670399993    7.5417444928800004 V
   6.1431120786599998    3.7637542595699998    9.6949077076800005 V
   6.1007544160200000    7.4236111668899998    1.6989558767999999 V
   2.7687533724000000    9.1361625289199999    3.9351874067999999 V
   2.7831838739399997    8.8494273698400008    7.5499353072000002 V
   6.1914956650199997    7.1292532797900003    9.6856031282400004 V
  17.4017929040999988   11.2039028703000003    1.6276285022400001 O
   8.7847572238199998    1.3844295270900000    4.3229632960800002 O
   8.7932146606199986    1.9621634049899999    7.3726610256000003 O
   0.1378209805200000    0.0953917659000000   10.0805952873599995 O
   0.2598723653400000    4.7721507374700005    1.1926336125600001 O
   8.6693484508199994    5.3054187019199999    4.2575992056000000 O
   9.1116371561399987    5.4318612412799991    7.1246162520000000 O
  17.5366009227599982    3.0787423280099997   10.1867046184800003 O
   0.2149246126800000    7.4772501937199998    1.1907077270399999 O
   8.6006317768200002    8.8005902309999993    4.5210510633599998 O
   8.9465761812599993    9.3770536542300000    7.4204601119999998 O
  17.4273061717799997    7.7938733372400000    9.9909836020800000 O
   4.4211250871999992    0.1746121511700000    1.4510271203999998 O
   4.2350262382799997    1.7107856453700001    4.1770368619200005 O
   4.3622049441600002    2.1259013255100001    7.2096104527200007 O
   4.2804673414199996   10.1646924833700005   10.2151056290400000 O
   4.4686629298799998    3.3035697383399998    1.7556418807199998 O
   4.3520031610199998    5.6810426216400005    4.4794704988800005 O
   3.7635065170200002    4.7986364873699996    7.4509262287199993 O
   4.5433702882799993    3.9533319360900001    9.8475399360000004 O
   4.7445868054800000    7.9888342962600003    1.0150808896800001 O
   4.4393790549599998    9.0359473419000000    4.2196151743199994 O
   4.2152041207800002    8.2216504978199989    7.2778285663200002 O
   4.5485152289999995    6.8731812978300004    9.8254270576800007 O
   1.8831011624999998    0.1602280203300000    3.6540777312000001 O
   6.8553163555199994    1.7355918111300002    1.9181819779200002 O
   6.8051179441799992    1.8885416335200000    9.5942047780799999 O
   2.4073741458000000   10.8461945147399987    7.5183554253600002 O
   1.9366825485599999    3.7020618421200000    3.4800287277600002 O
   6.6157242188399996    5.4803753831699993    1.9547273959200000 O
   6.8938681715999994    5.5024253082900003    9.4224297117600013 O
   1.7619660000000001    3.5717002730999998    7.9122802262400009 O
   2.0372731874999999    7.2960273716400001    3.6964240092000002 O
   6.8119896115799996    9.1160936517600000    2.1569685789599999 O
   6.6452195296799994    8.9691085063799996    9.5663142431999990 O
   1.8203751728999999    7.2374357249100001    7.6697114644800006 O
   6.1392533731199999   10.6520948809200000    7.8628801024799992 O
   6.3468658269000002    9.1735655757299988    5.9117260363200002 O
   6.3913378487399992    0.0011197227600000    3.6905999457600003 O
   1.9900524987000001    1.8590843116800000    1.8471794515200000 O
   2.3581448157600002    1.8342566127900000    9.6691518892800001 O
   6.5058480190800001    3.6087803229600000    3.8995237195200003 O
   2.7119123492399999    5.6854999795500003    1.7632990159200002 O
   1.7200840681800000    5.4211808088000000    9.5400015422400006 O
   6.7479950064600001    3.7698266022300002    7.7654488579200009 O
   6.5203842385799993    7.3247095008000001    3.7687027248000002 O
   2.2488676844400000    9.0830833634699992    2.0637603604799999 O
   2.2208348053799996    8.9612919801899995    9.4123362153599999 O
   7.0899397480799999    7.3488696726599994    7.8650612258400008 O
   2.1022544935799998   10.7890025214600005    0.2049095786400000 O
   6.4473683675400002    2.0021288942700002    5.7474688845599999 O
   2.5969264480799996    3.6185563639799998   23.1626019456000023 O
   6.3262684443599992    5.6040401487599993    5.9217499224000001 O
   2.2754909907000003    7.1233316690399997   11.4666063688799991 O
   6.6845113714800002    0.2052107289000000   11.4159996662399994 O
   2.0526551506800002    1.9449799672500001    5.7874716151200003 O
   6.7203673795799999    3.4921999571399995    0.0892172268000000 O
   2.0074607227799999    5.5479678782399997    5.6599687123200004 O
   7.0316186734799997    7.4424311225100004    0.0919088258400000 O
   2.2412912306400004    8.8782602309099996    5.7591634183200000 O
