Mg12 V24 O60
1.0
  17.6196599999999997    0.0000000000000000    0.0000000000000000
   0.0000000000000000   21.5331299999999999    0.0000000000000000
   0.0000000000000000    0.0000000000000000   23.2034400000000005
Mg V O
12 24 60
direct
   7.9127250111000000    9.1238025122999993   11.3607986824800005 Mg
   9.8303783268600000    0.0378121762800000    6.1407207856800010 Mg
   3.2658920792999999    1.8109577661299998   11.9936028981600007 Mg
   5.3564118793199995    3.6565838715599996    5.9397093849599996 Mg
   9.9086624762400000    6.9506574995700001    5.3811329738400007 Mg
   9.9770619963599998    3.5836511602499996    5.8354795324800000 Mg
   7.7712743806199995    1.9923313201199999   11.7563941310399986 Mg
   5.2690183657199992    0.0721144523700000    5.3143302700800001 Mg
   5.2920648809999999    6.9280261799400007    6.2358316862400001 Mg
   3.3707995349400002    8.7928813704600000   11.4517097604000000 Mg
   7.8452240936399997    5.1565601742300000    0.6546386527200000 Mg
   3.3514355285999997    5.5705345984799992   22.7102044759200012 Mg
   1.4038464104999999   10.8646914734100015    1.5838204075200000 V
   7.3275761025000001    1.8656949825900000    4.0607876275199999 V
   6.8967225565199994    1.8788732581500001    7.6732615908000001 V
   1.8733046315399999   10.8334038355200004    9.7716414837599999 V
   1.4941119286800000    3.5577898711200002    1.7499338344800000 V
   6.9604881060599997    5.2908838391700002    4.1038532121599998 V
   7.2030227259599995    5.3188769081700000    7.7080899542400001 V
   1.4896365350399998    3.4706237608800001    9.7887888259200011 V
   1.6984823650199998    6.9757220628900001    1.8705221121600002 V
   7.2404821231200005    8.7344835218999997    3.9199659501600004 V
   7.0880015854800007    8.9953143255899999    7.5977575970399993 V
   1.5099343833599999    7.1315142584399993    9.6226986024000016 V
   6.3680094188999998    0.0172480371300000    1.7150126572800002 V
   2.5411426045199996    1.5585679494000000    3.8498219510400005 V
   2.8875627397799999    1.7705616142500000    7.6082919587999998 V
   5.9139331610400001   10.6750922637599999    9.8358221988000007 V
   6.0691623656399996    3.3531390035999999    1.8880175059199999 V
   2.8723569732000001    5.1994757023200000    3.8859729105600005 V
   2.4664352461200001    5.2033085994599997    7.4270034820799999 V
   5.9761129411800002    3.6695468158200000    9.8802799898400000 V
   6.0174486635399997    7.1244083255399993    1.8369699379200002 V
   2.2093467870599999    8.9208527620500000    3.9551423652000000 V
   2.6329057938000000    8.8959389306399999    7.4034519904799998 V
   5.9652063716399999    7.1348734267200005    9.9069407423999998 V
  17.4365036342999993   11.0425981934700008    1.0285388848799999 O
   8.9131340665799996    2.2717452149999997    4.5017922081599995 O
   8.5303469530800005    1.7938604609100002    7.6766028861600004 O
   0.2182723480800000    0.2707575766200000   10.0301974156800000 O
   0.0082283812200000    3.9897013926600002    1.3822289208000000 O
   8.6233258988999992    5.4822272323500005    4.2883901704800005 O
   8.7949237676400003    4.9171117686299999    7.6124685780000005 O
  17.5009915898999999    2.9835228271500003    9.9184496486400011 O
   0.0816671241000000    6.5692842341400004    1.4590787140799999 O
   8.7695866965599993    8.3888337191399991    4.3225224307200003 O
   8.6403112511400000    9.3699046550700000    7.2326514686399994 O
  17.5456926673199973    7.6070734344900002    9.8472614947199997 O
   4.6942826761800003   21.5452100859300018    1.3645943064000001 O
   4.1455183654800001    1.3282280577900001    4.1404682404799997 O
   4.4996559118200006    1.8802298453400001    7.1339672383199995 O
   4.3549104049200000   10.4213027935800007   10.3274102786400004 O
   4.5277945088399996    2.8362792842100002    1.5629837184000002 O
   4.5181917941399998    4.9617284139899995    4.2724958140800000 O
   4.0741763621399993    5.4834761538900008    7.0175323764000002 O
   4.3872072416999996    3.8206017227700002   10.4551916227199992 O
   4.3695875816999994    7.4398686800399991    1.5144653253599998 O
   3.8363990504400003    9.0180748440000009    4.2030247147199997 O
   4.2548131164600003    8.4219732062099997    6.9653478398400006 O
   4.3094869214399996    6.9827849295299993   10.0537025004000000 O
   1.6403727263400001   21.4589053008899988    3.7029905827200005 O
   7.1532119471399991    1.8348595404299999    2.0683314381600000 O
   6.5464260960600003    1.8397690940700000    9.6724699811999990 O
   2.6456271883200002   10.9113106998599996    7.9982489714399998 O
   2.1428501902199999    3.3736600764900002    3.6110353500000003 O
   6.3879020150399999    5.3292128105699996    2.1208176194399999 O
   6.9137255284199997    5.4700394807699997    9.7614087667200007 O
   1.9142174820600000    3.4578976810499999    7.9307965713600002 O
   2.0932332276599999    6.9415489855799999    3.7429469064000003 O
   6.8420487515400001    8.8488244421999998    1.9526854932000000 O
   6.6225254076000004    8.9705296929599996    9.6306805857600004 O
   1.7451216050399998    6.9959847382200007    7.5701687068799997 O
   5.8988859713999995   10.6893902620799999    7.8314394412799997 O
   6.4013281959600006    8.7106032807300000    5.8053382639200004 O
   6.7789175097600003    0.1006027833600000    3.7023640898400001 O
   1.9541612512800002    1.5973921827899999    1.8679697337600001 O
   2.6213120575199995    1.8560481403499998    9.7403168397600002 O
   6.3569971314000000    3.4339528404899999    3.9592261706400000 O
   2.6236026133200001    5.3346606924600000    2.0070975600000001 O
   2.0442681925200001    5.2532008616699999    9.5645275783199999 O
   6.1911961308000008    3.7404769460399998    7.8617895408000003 O
   6.3498435494399992    7.1304591350700006    3.7949690188800003 O
   1.9212301067399999    8.8742335356000002    1.8930526524000002 O
   2.3837285620799999    8.9415891662400000    9.5654789193600003 O
   6.5561521483799998    7.1499035514600005    7.8723935128800004 O
   2.3340587405400002   10.6870000846500002   -0.0442953669600000 O
   6.4403205035399997    1.5780769651800002    5.7477937327199999 O
   2.4092946887399997    3.5134531564500002   -0.0103255308000000 O
   6.5132130369599999    5.3191568388599997    5.8256876808000007 O
   1.9935588110399998    7.0601965318800000   11.5726924965600002 O
   6.9169499261999992   21.5449947546300002   11.6158973018400005 O
   2.0667332590199998    1.7990068789799998    5.8813527333600000 O
   6.8151787700400002    3.6325098322200002    0.0997051816800000 O
   1.8917876548800001    4.8957509036699998    5.5709139095999998 O
   6.7317144406199994    7.0342060439699994    0.1430028007200000 O
   1.8738332213400000    9.2892415500900007    5.7860794087200000 O
