Mg12 V24 O60
1.0
  17.6196599999999997    0.0000000000000000    0.0000000000000000
   0.0000000000000000   21.5331299999999999    0.0000000000000000
   0.0000000000000000    0.0000000000000000   23.2034400000000005
Mg V O
12 24 60
direct
   7.6757758234199995    8.8461112678199996   11.8238929380000002 Mg
   9.5520581774999993    0.1527344910900000    6.4721587226399997 Mg
   3.5819535403799998    1.7392739763599998   12.1151889237599999 Mg
   5.3830704248999997    3.6024495827399998    5.7845943885599995 Mg
   9.8266253392799996    7.0797270807899997    5.4104621220000002 Mg
   9.6312409295399988    3.7676086898400003    5.7885389733599997 Mg
   7.8029545293000000    1.8942048467100001   11.1702056263200014 Mg
   5.0998872493800000   21.4719974439300003    5.4157757097600001 Mg
   5.3440957369800000    7.1159458054500000    6.0996042900000011 Mg
   3.4692405753599997    8.8548321854700003   11.5326897660000007 Mg
   7.9761381674399994    5.1979899163500001   22.8884997088800013 Mg
   3.4551977063399999    5.5623735422100005   22.9938897333599996 Mg
   1.7821228910400000   10.8093082630500010    1.9381601397600001 V
   7.1780380480799995    1.9291100504400001    4.0516918790399998 V
   6.5494742972399997    1.7577494019000000    7.5986857346400010 V
   1.8527777276399999   10.8520084598399986    9.7979309812800004 V
   1.5182684825399999    3.8590598929500004    1.8474810962399999 V
   7.0857286493399991    5.3586055330199995    4.1047581463200000 V
   7.2347381139600007    5.4347682138299991    7.5953676427200003 V
   1.5876723232799999    3.4714204866900000    9.9814237848000005 V
   1.7422319808000000    7.3631030715900003    1.8261803383199999 V
   7.0921422055800001    8.9410293048599989    4.2444428551200000 V
   7.1643475722599996    9.0169766543699996    7.6820092876799997 V
   1.7185687774200000    7.0609501914299999    9.8562644294399995 V
   5.9751967188600004    0.3224801548800000    1.7918624505600000 V
   2.3312043556200002    1.9139722600500002    3.9499215911999999 V
   2.7851044168799999    1.9010739151800000    7.6476913999200011 V
   6.0665017969799999   10.6660914154200004    9.9956706969599995 V
   6.0563528728199998    3.6628284792599999    1.8711254016000001 V
   2.6840556667800000    5.3642256799499997    3.9768839884800000 V
   2.4084841843800002    5.3473006397700003    7.7017786185599997 V
   5.8743946439999997    3.8789780381999996    9.7820830317599992 V
   6.2935487357399991    7.2652565288700002    1.8207507333599999 V
   2.7697224537000000    9.1015157227500012    4.0523415753599998 V
   2.8379986361999996    8.7889838739300004    7.6407303679199998 V
   6.0201973305000003    7.2832151592900001    9.7900418116800001 V
   0.1684439496000000   10.5191924025599999    1.6947328507200001 O
   8.7837529031999999    2.2891870502999998    4.2995510251199995 O
   8.1656199910799998    1.3409541376200000    7.4987949254400004 O
   0.1350899332200000    0.1456716244500000    9.9507256336799994 O
  17.5540972451399995    4.3142056617600000    1.5636798216000001 O
   8.7137499940200005    5.2843593007800003    4.4546892249600001 O
   8.8894884828599992    5.2921758269699994    7.1602799392800005 O
  17.5974944677200007    3.0738543074999995   10.0182940509599998 O
   0.1209589659000000    7.6737400049700000    1.9089238053599999 O
   8.6888181751199998    8.8637253681600008    4.6776742833600000 O
   8.8441530976799996    9.0160937960399998    7.5861094701599994 O
   0.1660300561800000    6.6907310873399997   10.3339072418400004 O
   4.3830490019399999    0.7691849367300001    1.6699283733600001 O
   3.9584151959399998    1.8189896236199998    4.2862090471199998 O
   4.3032319421400000    2.4027527779200000    7.2031366929600003 O
   4.4377580462399999   10.4151012521399995   10.5141979706399997 O
   4.4215831983599996    3.3881088067200000    1.4885006759999999 O
   4.2617376428400000    5.1041700689400002    4.4594691335999999 O
   3.9858313868999997    5.6690056019699995    7.2713316031200002 O
   4.3987657386599999    4.3454502333900002   10.2987076233600003 O
   4.7644265426399999    7.1258079789900002    1.2463959830400000 O
   4.4041573546200006    9.4758261215400008    4.3929912780000002 O
   4.4115576118200002    8.5871969126999996    7.4794432564800006 O
   4.3974795034799996    7.2139000138199991   10.1008982973600006 O
   1.6308757296000000    0.0407191488300000    3.9666512714400000 O
   7.0613958988799999    2.0213795124899998    2.1138797908800000 O
   6.2989051123799999    1.8846441369900000    9.5817213273600004 O
   2.3249846156399996   10.7152946174699988    7.7394378016799994 O
   1.8382943671199998    3.7756190141999997    3.5742811010400004 O
   6.8420135122200003    5.4053539582500001    2.0821374849600001 O
   6.6979551720600004    5.5125458793899993    9.4798814292000007 O
   1.9047733443000001    3.5585219975399998    7.9650912556800009 O
   2.2375734823799998    7.2379094537700004    3.7295121146400003 O
   6.7286133804600006    9.1649523237300006    2.1564813067200004 O
   6.9537926352599992    8.8831267182899989    9.7813405216800007 O
   1.7961481403999999    7.0532197977599997    7.9007249131200004 O
   6.3239426492400002   10.5980036583599997    7.8973836177600001 O
   6.4146838982399998    8.9252670537000007    5.9133038702400009 O
   6.8243233735800004    0.1158482394000000    3.7718119857600003 O
   1.8765642686399999    1.9069093934099999    2.0319020373600001 O
   2.5423231217400000    1.7996098066199999    9.6288939208799995 O
   6.2310518017200005    3.5207098212600001    3.8865065896800002 O
   2.4256281135600002    5.5434889871999999    1.9529871379200001 O
   2.2261383230400003    5.2806771355500004    9.6004233000000010 O
   6.3801669842999997    3.6678672316799998    7.6950496209599999 O
   6.4379242297800001    7.1191973080800004    3.9124248321600006 O
   2.5724351206799998    9.0582771977099998    2.1252494764800001 O
   2.2665754427400002    8.9115719830200000    9.5542948612800007 O
   6.6019985037000000    7.2157087967400004    7.8329476648800007 O
   2.3834466475200000   10.7787958178400007    0.0851334213600000 O
   6.1508118700800001    1.6686883762199998    5.7572839396800006 O
   2.4129771976799996    3.7218077223299999    0.1461352651200000 O
   6.3696480472800001    5.3707717514700004    5.8196083795200000 O
   2.2560741253799996    7.2485683531199996   11.6391935556000004 O
   6.9250549697999997   21.4390086887699987   11.4498998920799995 O
   1.9751638860000000    1.8969395542200000    5.8486822898399993 O
   6.7484531176199996    3.5970017008499999    0.0115553131200000 O
   1.8195470488799999    5.4197596222199991    5.8707951681600008 O
   6.8934629194200001    7.0170010730999994   23.1377046544800002 O
   2.1862650324599997    8.7601510128599998    5.7990733351200001 O
