Mg12 V24 O60
1.0
  17.6196599999999997    0.0000000000000000    0.0000000000000000
   0.0000000000000000   21.5331299999999999    0.0000000000000000
   0.0000000000000000    0.0000000000000000   23.2034400000000005
Mg V O
12 24 60
direct
   7.9094653739999998    8.9119811124900004   11.4237960220799994 Mg
   9.5220342768600013    0.0745261629300000    6.4427367607199999 Mg
   3.4723592551799998    1.6984471618800001   12.0426085634400017 Mg
   5.2485795601199996    3.8848135164299995    6.2628172869600007 Mg
   9.5498028610199981    7.4715439142699998    5.7889798387199995 Mg
   9.5592469987800008    3.8000375836200000    5.5384755004799997 Mg
   7.8004172982600002    1.5319099344600000   11.4257915179200005 Mg
   5.1586311958200000   21.5350033823099984    5.8305604031999998 Mg
   5.3432323736400003    6.8604121517399994    6.2429783457600001 Mg
   3.4093161116999999    9.0775708821900007   11.7838902074400007 Mg
   7.7605440076800001    5.4438767278199993    0.1563679821600000 Mg
   3.6295794813600000    5.6263915377000009   22.5763902374399983 Mg
   1.5018117201000001   10.5975083963699994    1.6486276154400001 V
   7.1365613684399998    1.7779905441000001    4.0592329970400005 V
   6.9318737782199999    1.7190328341600001    7.6476449930400010 V
   1.8658338957000000   10.8953977167899989    9.7996944427199999 V
   2.1584612089799999    3.6268466190299997    1.7729284435200001 V
   6.9789006507600000    5.3522101934100004    3.8937924698399997 V
   7.2418564565999999    5.3383213245599999    7.7624556141599994 V
   1.6831708804800001    3.6191162253600000   10.0184100681599997 V
   1.9676931501599999    7.0708338981000001    1.9335890620800000 V
   6.9879042970199992    8.7144361778699988    3.9165318410399999 V
   7.0699061946600006    9.0093754594799993    7.4836894860000003 V
   1.3805179806600001    7.3662899748299999    9.7430316422400001 V
   6.2835936278400002    0.0724805155800000    1.6859155435199999 V
   2.8337170588200000    1.8561773391300000    4.0200423868800002 V
   2.6821703631600000    1.8533134328400001    7.6245111633600002 V
   6.0606344502000002   10.7857940850900000    9.7761893579999999 V
   6.1444159335000004    3.6154340601299997    1.7215096204800000 V
   2.8521824624999996    5.2782869581199998    4.1089347655199999 V
   2.5498114772400000    5.3998630100999998    7.6357184248800003 V
   6.3665822264399994    3.6432548640900002   10.0020052360800005 V
   5.8819358584800003    7.2131032880100001    1.7388193867200001 V
   2.4476526885600003    9.1624329475199993    4.0425265202400000 V
   2.7012876942599999    8.8034326041599993    7.6767653102399995 V
   6.2426631576599991    7.1882109897299999    9.8113425696000007 V
  17.5092023514600008   10.3483916154000006    1.3057271791200000 O
   8.7191239903200000    1.7538949716299999    4.7012721818400003 O
   8.5197751570799998    1.4463372758400002    7.5388208594400004 O
   0.0454939621200000    0.3749133264300000    9.9299121479999997 O
   0.4583225959200000    3.7529230951799999    1.5994595260800000 O
   8.6350253531399996    5.0503803101999996    4.0532465095200001 O
   8.8434130719599988    4.9842520679700000    7.2294725973600000 O
   0.1105633665000000    3.3262656573600000   10.3892010393599996 O
   0.3451339000800000    6.8105414226600001    1.8084993170399999 O
   8.5101195833999999    8.3255047838100005    4.2491299500000004 O
   8.6882719656600003    8.9518604692500006    7.0380906242400005 O
  17.4710029285799990    7.5190675321800002   10.3434902625599996 O
   4.7499608017800004    0.4540475791800000    1.5012393645600002 O
   4.4687157888600000    1.5337187173800000    4.2797816942400004 O
   4.3026681130200002    2.2306600029600001    7.3308020198400001 O
   4.5295917141600004   10.3829953553099994   10.1654966743199999 O
   4.5382253475600001    3.1825104814800000    1.4708196547200001 O
   4.4542324283400001    5.1592948817400002    4.6705972341599997 O
   4.2406116704999999    5.4201472185599995    7.3856317485599998 O
   4.7868916091399996    4.1251017140999995   10.2787062580799997 O
   4.2572974885199999    7.6022284802399991    1.2632880873600001 O
   4.0891883124600001    9.4816831329000006    4.0045888958399996 O
   4.2154331763599995    8.4396734390699990    7.1849916028799994 O
   4.5992950891200000    6.9831294596099998   10.0088966577600011 O
   2.0365155421200001   21.5373935597399999    3.9024241495200003 O
   7.1081056175400006    1.8096442452000001    1.9415246385600000 O
   6.4254142711800002    1.7470043700300000    9.7547261760000001 O
   2.4375918626999997   10.7688044455199989    7.8143617094400009 O
   2.1219180341399997    3.6430179996600001    3.8220242299200002 O
   6.7011443305200000    5.4235494530999997    1.8505671537600001 O
   7.1003705867999996    5.4187906313700003    9.6058761084000004 O
   1.8588565103399999    3.6635175394200004    8.0835912237599992 O
   2.2166413263000000    7.1213936873400003    3.9656535235200003 O
   6.5108343828599997    8.8463481322500002    1.8941200106400000 O
   6.7892954894999997    9.0060378243299990    9.3612422404800011 O
   1.7775241597800000    7.2083014000199999    7.9329312878400007 O
   6.2328490070399996   10.7573918866200007    7.8802826824799999 O
   6.1431825572999994    9.1028077105500014    5.6643077556000003 O
   6.6783444904799998   21.5098957527299994    3.6612940010399999 O
   2.4769894224600000    1.8666855065700001    2.1222562327200003 O
   2.5983360208799997    1.8529473696300001    9.8661722983200004 O
   6.2803516103999995    3.5726692639500000    3.7849915396800000 O
   2.8149521209199997    5.3202334953600001    2.1009090679200000 O
   2.1613332135599999    5.5144407948300005    9.5866636600799993 O
   6.6545931887999998    3.6398741626800000    7.8870348835200002 O
   6.1385133473999991    7.0494515000099991    3.6983266912800001 O
   1.9751286466800000    8.8703575721999997    2.2204763942400003 O
   2.2668397376399998    9.0095261913900000    9.6132083954399992 O
   6.6589628644799994    7.1587536678900001    7.7501113840800002 O
   2.4318830928600002   10.4368927797000008    0.1268764099200000 O
   6.4041473415599999    1.6395755844600000    5.8934649290400003 O
   2.7155243795400001    3.9061743813900001   23.1241074386400030 O
   6.6505582866599999    5.4144194059800004    5.8961333246400001 O
   2.1323488728600002    7.3154287217700000   11.5138949795999999 O
   6.6544874708400004   21.3277900723199991   11.5994924697600013 O
   2.0841062437800000    1.6775169595199999    5.7541978821599997 O
   6.9005636423999999    3.6373547864700004   23.0279059763999996 O
   1.9775249204400001    5.2648287518699997    5.9468096376000004 O
   6.6964927402800001    7.0932929526900006   23.1816983767200000 O
   1.9736838345600001    9.2346981318000001    5.8876872724800009 O
