Mg12 V24 O60
1.0
  17.6196599999999997    0.0000000000000000    0.0000000000000000
   0.0000000000000000   21.5331299999999999    0.0000000000000000
   0.0000000000000000    0.0000000000000000   23.2034400000000005
Mg V O
12 24 60
direct
   7.7107860878399999    8.8910078438699998   11.8986080148000006 Mg
   9.9296298716399995    0.0458009675100000    6.1283765556000001 Mg
   3.2170503817800000    1.7320173115500002   11.9226003717599998 Mg
   5.1611860465200001    3.5426305476000000    5.9380387372799994 Mg
   9.4922570514599993    7.2942185887199997    5.0728288665600001 Mg
   9.6129869617800008    3.6791505918000000    5.6774641060800004 Mg
   7.9584480288000004    1.5854843619000001   11.1890004127200005 Mg
   5.3887615750800002    0.0068475353400000    5.3589968920800004 Mg
   5.3555661356400002    7.3699936731899998    6.0332656550400010 Mg
   3.7314739751399997    8.8215204333599999   11.7652114382399997 Mg
   8.0167338640800008    5.3103282555600000    0.5017743900000000 Mg
   3.6263727032399999    5.6387730874500006   22.9368092709600013 Mg
   1.6774444909799999   10.8118922386499996    2.0212516584000002 V
   7.3093926133800000    1.9333520770500001    3.9927551414400004 V
   6.9125450111999998    1.7011172699999999    7.5913070407199994 V
   1.8190184590799998   10.6399932618600008    9.9927238600799999 V
   1.7126838109800000    3.7496715925500004    1.6695107114400001 V
   6.8571840394799999    5.4989800074900002    3.9868846711200003 V
   7.0027576704000003    5.1814955387700001    7.5680339904000000 V
   1.4977944376199999    3.3702793750799995    9.8095327012800002 V
   1.7034334894800001    7.1461137205799998    1.6990718940000000 V
   7.2146517015600002    9.0122608989000010    3.9033986940000003 V
   7.2363943620000004    9.0117871700399999    7.6520304432000001 V
   1.6647230964599999    7.1024229998099999   10.0350933415199997 V
   6.3503016606000005    0.1730832989400000    1.8687354472800000 V
   2.4557048731799997    1.8865605855599998    4.1230656604800000 V
   2.6460324405000000    1.8206046083700000    7.6113780163199998 V
   6.0592424970599996   10.6469053965900002    9.9568745452799998 V
   5.9694527097000005    3.6533969683200000    1.7590991932800002 V
   2.9562617941199996    5.4844451447399996    3.9029114217599998 V
   2.6002918031399997    5.2769949703199996    7.6086864172799995 V
   6.1477812885600001    3.4237246037400002    9.9114190063200009 V
   6.1831087068599997    7.2880601135399994    1.6016870563200001 V
   2.8870517696399998    8.7983292523499994    4.0801160930400000 V
   2.8296645370199998    8.6264948749499997    7.6721478256800006 V
   6.2724051437399995    6.9609934019699997    9.8019451764000003 V
   0.0473264067600000   10.6770087123300002    1.8758589033599999 O
   8.7434215014600003    2.3040449100000000    4.5813568039200003 O
   8.5342761372599991    1.5378100120799998    7.3025402299200000 O
   0.4004067735000000   21.4299001747800020    9.9010006617600013 O
   0.1561101876000000    4.4016517026900006    1.3137091624800001 O
   8.5567412037599997    5.6301598354499998    4.1812830914400001 O
   8.6170885392600010    4.9049024839199999    7.1090699472000001 O
   0.0532818518400000    2.7717014273400000   10.2704922403200012 O
   0.1446221692800000    7.3966301550000004    1.2336340910399999 O
   8.9349119663399996    9.0895863687300000    4.0473760392000004 O
   8.7894264337199992    9.3784748408100000    7.3252331942400000 O
   0.0441901072800000    7.2627802189199997   10.3394992708799993 O
   4.7221041193200000    0.4661276651100000    1.5704784295199998 O
   4.0608206598600001    1.6445497374900000    4.4658732830399996 O
   4.2169837064399998    2.2190105796299999    7.1899571390399997 O
   4.6202272451999997   10.0452912775199987   10.4450053125600011 O
   4.4225522796599996    3.0933202570200002    1.3044277864800000 O
   4.6192581638999997    5.3451903930300002    3.9858405163199997 O
   4.2711641609399997    5.0019092345700003    7.4843391823199994 O
   4.5528320456999998    3.7032676973999998   10.4285076667199998 O
   4.4283843871199995    7.6129735121100000    1.5963502651199999 O
   4.4895246073199990    8.6251598208899996    4.5526773520799999 O
   4.4725040157600002    8.3204014320000006    7.6018414024799998 O
   4.6309576181399992    6.7379532414299996    9.9812845641599992 O
   1.7648027652600000   21.5570963736899976    3.7461025742400000 O
   6.9747424109999994    2.0097516222900000    2.0091394627199999 O
   6.6374492596200003    1.6014188781000001    9.5511159900000013 O
   2.4929352147600001   10.5470993390400007    7.8678224351999999 O
   2.1895775285400001    3.7623976723799997    3.7757101636800003 O
   6.5026060016399994    5.4490877452800000    2.0627626125600003 O
   6.9069948182999994    5.1460735399199997    9.5179350708000001 O
   1.7261804705399999    3.6651971235600000    7.9762521103199999 O
   2.0267718701400002    7.0999682229899994    3.8090999138399999 O
   6.7367008043999999    9.1241039761199989    1.9374872400000001 O
   6.7957266653999993    8.9168691330000005    9.6610770921600011 O
   1.8235819510200000    7.0643739590999992    7.9656017313599996 O
   6.3746520307200001   10.6082964944999993    7.6186638964800011 O
   6.5030817324600001    9.0140266155599988    5.7576551947199999 O
   6.7786003558800001    0.0345606736500000    3.8045056327200002 O
   2.0567076724800000    1.9436879794499999    2.0545717982400000 O
   2.6767787471999998    1.7408458948500001    9.5919540443999995 O
   6.5683449530999996    3.6831988202399999    3.7768007253600002 O
   2.7206164612799997    5.4308061179100005    1.7894956996800000 O
   2.1847849810200000    5.2307202739499994    9.6359941735200003 O
   6.3420380400600003    3.4836297714000000    7.7863087504799999 O
   6.5974350117600000    7.2586673910899995    3.5300089375199999 O
   2.4095942229599996    8.9820068512500004    2.1925162490400001 O
   2.4654485451599997    8.8492120385399993    9.6890140339199995 O
   6.7214421788399994    7.1208122928300002    7.8141064715999997 O
   2.3571933541200001   10.6955056709999994    0.1767406024800000 O
   6.4581515994599998    1.7774091495900002    5.7041712655200003 O
   2.3472734855400001    3.6929317950000002   23.0263049390399992 O
   6.2388220717799996    5.5514777784300007    5.8483806451199998 O
   2.6339629734000001    7.0130174440499999   11.5790966460000000 O
   6.6503292310799997   21.4584961714200020   11.4792058368000003 O
   1.7734187790000000    1.9173098951999998    5.9554181138399995 O
   6.7606987813199995    3.8026646254799998    0.0842052837600000 O
   2.1421454038199998    5.4440489928600000    5.7509958074399998 O
   7.1676248290200002    7.1477717715899995    0.1623080628000000 O
   2.0901497871599997    8.7830622631799997    5.9156938245599999 O
