Mg12 V24 O60
1.0
  17.6196599999999997    0.0000000000000000    0.0000000000000000
   0.0000000000000000   21.5331299999999999    0.0000000000000000
   0.0000000000000000    0.0000000000000000   23.2034400000000005
Mg V O
12 24 60
direct
   7.8295425962399996    8.6719082461200010   12.1509918316800007 Mg
   9.6000365116799991    0.3498918293700000    6.3458391952800000 Mg
   3.4948595609999997    1.5172458729299998   11.8899067247999994 Mg
   5.2332328362600000    3.9374404861499999    5.2811493508799998 Mg
   9.6194533770000010    7.2190248987599999    5.9310312984000007 Mg
   9.4797294732000008    3.3966143930699997    5.9137447355999999 Mg
   7.9764729409799999    1.7647476691499999   11.1044006704800005 Mg
   5.1052260063599997    0.5654169275399999    5.2084065664799999 Mg
   5.5001002066200000    7.2958981728600003    6.2351819899200001 Mg
   3.6434637734399997    8.8105600701900002   11.2183991712000015 Mg
   7.6027951917000003    5.6452760927099996    0.2780932284000000 Mg
   3.1632751794599998    5.3358665477399994   22.8974098298400008 Mg
   1.6467334236000000   10.8033005197800005    1.6294847774399999 V
   7.2560050435799992    2.0500616416500002    3.9501768290400001 V
   6.8421897088199994    2.0183218080300001    7.5948803704800003 V
   2.0145614457599996   10.8503934750900015    9.9613296057600014 V
   1.6043229019799998    3.6583280550899997    1.7900989891199999 V
   7.1352398939399997    5.7180150058499990    3.9327046387200002 V
   7.2269326045800000    5.3156900049299995    7.7086700402399995 V
   2.1611041579800001    3.5498226130199999    9.8033837896799998 V
   1.7857173016799999    7.3132969419000000    1.7577301903200000 V
   7.0310019853799997    8.9798104719899996    4.0755450153600004 V
   7.3659869613000000    9.1471874914800004    7.6383868204800001 V
   1.6465924663199998    7.0565358997800001    9.8233387480799994 V
   6.4038478073400000    0.2219635040400000    1.7277745492800001 V
   2.4206593694400000    1.7572110736500000    3.9467659233600001 V
   2.9915011141199996    1.6441190748900001    7.6384332273600002 V
   6.2623266982199999   10.6620001207200001    9.7841017310399998 V
   6.0427681149599994    3.6223892611200004    1.8454856004000000 V
   2.6564280399000002    5.2169175376199997    4.0545226987200005 V
   2.7374784759000002    5.4644839332300004    7.5955532702400008 V
   5.8003039737000002    3.7249515593100000    9.8541761198400000 V
   5.8173421849200002    7.3685294203500007    1.8946536897600001 V
   2.6742238965000000    9.0037122462900001    4.1331591568800006 V
   2.7758540953799997    8.9148450187799995    7.7195756570400009 V
   6.4313520965999995    7.2828275629499997    9.7750755928800004 V
  -0.0085807744200000   10.5759967994999986    1.3753142956800000 O
   8.8626361210199995    2.0008369064700000    4.5871808673599999 O
   8.5324260729599999    1.9277965295099999    7.2501236589599998 O
   0.4175507026800000    0.7333322752800001   10.4080886395200007 O
  17.5881912872400008    3.9376127511900001    1.5372279000000002 O
   8.7849334204199998    5.6263915377000009    4.1850188452800001 O
   8.7403380609599992    4.7483135625599999    7.3307788164000005 O
   0.4898617873200000    3.4629579665999999   10.0016107775999998 O
   0.1602508077000000    7.6205531738700003    1.8291503786400001 O
   8.6608205353799992    8.4921496768800004    4.3657736428800007 O
   8.9332028593199997    9.7318335041099999    7.1398145052000004 O
   0.0308344050000000    6.8721477075899999    9.8810457033599999 O
   4.8457060342200000    0.5121224307900000    1.3752910922399999 O
   4.0024643459400000    2.1897039896999999    4.1662936691999999 O
   4.5196366062599997    1.2195718838100000    7.0203399926400003 O
   4.6405074738600005   10.3497912688499998   10.0124931909599990 O
   4.4590954544999999    3.2403054024000002    1.8063181936800001 O
   4.2399949823999998    5.2668528660899998    4.1857613553600004 O
   4.2088786628400001    6.1025967076500001    7.4420625146399999 O
   4.1628737305800003    4.1345547581700002   10.1880040111200003 O
   4.1756832234000001    7.6129304458500000    1.5079683621600002 O
   4.2726265927200000    9.3058866595800005    4.5208422324000006 O
   4.3545051527399998    8.9502885507599999    7.3448401010400008 O
   4.8379357641600000    7.6445841469500007    9.7560487720800015 O
   1.5212990640599999   21.5061059218500006    3.9084802473600004 O
   7.0947499152599995    1.9782486530999999    1.9111281321600002 O
   6.2953988000400001    1.8865175192999999    9.4263975000000002 O
   2.2095406033200002   10.7565090282900009    7.9115841230399999 O
   1.7778941726399999    3.5258777724599999    3.7765918943999996 O
   6.3582833665799994    5.5711375261200002    1.9689279012000001 O
   6.7955680884599996    5.3395702461000001    9.5757580432800005 O
   2.6266860538199999    3.5001241489799999    8.0156979583200005 O
   2.1479246523000000    7.1044686471600000    3.8298437892000003 O
   6.6236530658399992    9.1233287834399999    2.1466662516000001 O
   7.2334166394599997    9.0451419884100002    9.5235967101599996 O
   1.9311147360000001    7.1216090186400001    7.7380223918400004 O
   6.4924042184999999   10.8413926267500003    7.7735004516000004 O
   6.5134068532200002    8.9230491413100008    5.9419137117599998 O
   6.5418626041200003    0.2824931324700000    3.8010947270399997 O
   2.0701162337399999    1.6549717724099999    1.9296444772800001 O
   2.9172871061999999    1.7120991663000000    9.6724003708800002 O
   6.5637286021799994    3.8666610878400003    3.7781001180000002 O
   2.4590173692599997    5.3831533012200001    1.8230246704799999 O
   2.2722665929199999    5.4581531930100002    9.5899585485600003 O
   6.2397559137599998    3.7520833031100000    7.9778067408000002 O
   5.9741571589199998    7.2778103436599997    3.9601543082399999 O
   2.4754741317000000    9.1636172696700005    2.1021156467999997 O
   2.4016829956200003    8.9126701726500013    9.8064234403199997 O
   6.8672801046599998    7.2415916189999994    7.8477050527199994 O
   2.4009782092199998   10.8992090808000004   -0.0145253534400000 O
   6.4010286617399990    2.0195922626999998    5.6497127918400007 O
   2.3311162573200002    3.3215283687600001    0.0287026552800000 O
   6.4055392946999996    5.4999920645999998    5.8907037196799994 O
   2.5793244077399997    6.9318590770799995   11.4845890348800008 O
   6.8259972412799996    0.0839792070000000   11.4970028752799998 O
   2.0877711330600000    1.6909320995099999    5.9080830962399995 O
   6.5769257275199999    3.9257695296900001   23.2023958452000016 O
   2.0684071267199999    5.2015644159300001    5.8511418544799998 O
   6.5381272362000002    7.3399764899699997    0.1823326315200000 O
   2.0299786482599997    8.9300474085600001    5.9622863320799997 O
