Mg12 V24 O60
1.0
  17.6196599999999997    0.0000000000000000    0.0000000000000000
   0.0000000000000000   21.5331299999999999    0.0000000000000000
   0.0000000000000000    0.0000000000000000   23.2034400000000005
Mg V O
12 24 60
direct
   7.8495937693200002    8.9919120910499988   11.3339987092800012 Mg
   9.7146171606599996   21.5286080427000002    6.4364022216000008 Mg
   3.3291995176800002    1.9226501114400001   11.8771912396800001 Mg
   5.4336036097800005    3.7614502146600000    5.8116960064800001 Mg
   9.9383516033400010    7.1110362518099999    5.4416939522400005 Mg
   9.8115429103200000    3.8071650496499996    5.5246230468000004 Mg
   7.6495049103599992    1.7937743283900001   11.5583991775200001 Mg
   5.5122225326999992    0.2218127721300000    5.5950222837600005 Mg
   5.5274106796200000    7.2292100692499996    6.0451458163199998 Mg
   3.3783055100999997    8.9947113979500006   11.6904963614400010 Mg
   8.0997048430199996    5.4543633621299996    0.4408885634400000 Mg
   3.4165577919599999    5.3856942105599996   23.1458026550400007 Mg
   1.2913096420800001   10.7348897657699993    1.6518760970400002 V
   7.5846117025799993    1.9731022350300000    4.0079301911999998 V
   7.1288968163399993    1.7621206272900001    7.6561838589600004 V
   1.6071772869000001   10.5283009165500001    9.7528699008000004 V
   1.6252374384000001    3.5153696050200001    1.7698423859999999 V
   7.1155058747400002    5.3285452835400005    4.0741760123999997 V
   7.4336993146800001    5.2821413883899995    7.5694261968000003 V
   1.6665379214400000    3.5813901815999998    9.9390310999199993 V
   1.5379144034400001    7.0032629361600005    1.6904866212000000 V
   7.1354689495199999    8.8665677413200008    4.0298110351199998 V
   7.0660474891199998    9.0360334744199999    7.5707023859999998 V
   1.5997241707199998    7.1951877238500002    9.7651909274399991 V
   6.1648899784199997    0.2153958993900000    1.9015915183200001 V
   2.7837124637399997    1.6930854125100001    4.0266553672800001 V
   2.8761275804399999    1.8934081208999998    7.5847172637600000 V
   5.7990177385199999   10.7668018644299988    9.7594596777599989 V
   6.0678232714800000    3.5615581688700000    1.9287163396800000 V
   2.9987956533599998    5.1931880283599998    3.9062527171200001 V
   2.5389225273600000    5.4170679809699998    7.5926296368000008 V
   6.0144180820199997    3.8353949830800000    9.7996480358400007 V
   5.9294560815000006    7.2729438562800004    1.9322200591200001 V
   2.4491679793199999    8.9814039236099994    3.8361783283199999 V
   2.7983015422200004    8.7086006996399998    7.5626971992000005 V
   6.3261979657199996    7.2019275935399998    9.7888816396800014 V
  17.2353047367599999   10.6276978446300010    1.5117969297600000 O
   9.1356351330600010    2.4437949237000001    4.1209541474400000 O
   8.7829247791800000    1.5049719888299999    7.4425497868799999 O
   0.2811745342800000    0.5653953944100000   10.0863961473600003 O
  17.5805972137799991    3.6658000512000002    1.3942018958400000 O
   8.7224012470799988    5.5385363672999999    4.3479069940799997 O
   9.0817894520999989    5.1201045851400000    6.9801052276799993 O
   0.0953575999200000    3.4423076949300002   10.2474976312799999 O
   0.0285262295400000    6.6857354011799996    1.2499693128000000 O
   8.7933732375599991    8.3850438882600002    4.1652495144000001 O
   8.6283475020000004    9.5460671916000006    7.3508033851200008 O
  -0.0118227918600000    7.5884257439100002    9.9742539218400008 O
   4.5584527172399998    0.4035523893300000    1.5844701038400000 O
   4.4445063760199996    1.9546052763600001    4.3083915357600002 O
   4.4621965146599996    2.0863018994400000    7.0711091193600009 O
   4.2637815234000005   10.6716038966999989   10.2568950244800003 O
   4.4454578376600002    3.2142933813599996    1.6628513241600003 O
   4.5972864478799993    4.9366638506699996    4.3464683808000002 O
   4.1205160679399997    5.2476022478699997    7.1759886681599996 O
   4.4152401207599992    4.0566909600900001   10.3088939335200003 O
   4.3376959971000000    7.4865740390100006    1.4697754999199999 O
   4.0532618257199999    9.3024844250399994    4.2087791678399995 O
   4.3658169744599995    8.2517753466899997    7.3179705175200009 O
   4.8313636309799994    6.9655368923999994   10.4185069840800004 O
   1.9827403398000001   21.4718897782800013    3.8665052244000000 O
   7.0928293723200007    1.8906088140000001    2.0290944211199999 O
   6.2919805859999993    1.8112376968199999    9.4723403112000000 O
   2.1854721477599997   10.5562939855499991    7.7590679119199999 O
   2.1452817032999998    3.5733367909800000    3.7509288897599999 O
   6.6006946488599993    5.5143761954399997    2.1258063590400003 O
   7.0758087807600001    5.3953625859299992    9.5321587795199996 O
   2.0665042034400001    3.5846416842300002    8.0481363674400015 O
   2.1675000945599998    6.9011097674399995    3.5851171075200003 O
   6.5591474905800000    8.9970800422499995    2.0818590436799997 O
   6.8053293800999999    9.1168903775699999    9.4913439285600010 O
   1.9851542332200001    7.0994729610000000    7.8101386833599999 O
   6.0722458061400006   10.8078009439499994    7.8019710724799998 O
   6.3469363055399999    8.9435056148100003    5.7831093684000008 O
   6.9362610735599999    0.1206285942600000    3.8269433591999999 O
   2.2222796174999999    1.6924394186100000    2.1888965123999999 O
   2.6583485828400000    1.9571031194399999    9.6504035097600003 O
   6.4172387489400000    3.5613859038300002    3.8068259767199999 O
   2.5038065449800002    5.3200396971900004    1.8793626228000000 O
   2.1689449066799997    5.5059352084799995    9.7646108414399997 O
   6.4913822782199997    3.6434917285199999    7.8182134804800008 O
   6.4588035268799997    7.2099594510299996    3.8978066649600001 O
   1.9633587137999999    8.9812962579600004    1.8937951624800000 O
   2.6195324718599999    8.7701423851799998    9.5977317009600007 O
   6.9073119721800005    7.2604546408799990    7.8490508522399995 O
   2.2144741081199997   10.5405963337799999   23.1429950388000023 O
   6.7168434475800005    1.9283563908899999    5.7930404407200005 O
   2.4072684278400001    3.2369677672499999    0.0324616125600000 O
   6.4824667302599996    5.5521668385899998    5.9615902288800005 O
   2.2836841325999999    7.1648475436799997   11.6139018059999994 O
   6.7616854822799999    0.1125752036400000   11.4892993332000000 O
   1.9572270721200000    1.5386713372800001    5.8748557701599999 O
   6.8570078428799999    3.6983366106299997    0.1630505728800000 O
   2.1981406833000001    5.4655175234700000    5.5432554091200004 O
   6.9574751442000000    6.9985687138200001    0.3078632419200000 O
   2.0691823917600001    8.7278297847299999    5.7437795376000000 O
