Mg12 V24 O60
1.0
  17.6196599999999997    0.0000000000000000    0.0000000000000000
   0.0000000000000000   21.5331299999999999    0.0000000000000000
   0.0000000000000000    0.0000000000000000   23.2034400000000005
Mg V O
12 24 60
direct
   7.9373044367999999    9.1043365627800004   10.9808887593600009 Mg
   9.7743830473799989    0.0296941862700000    6.1443637257599999 Mg
   3.5598937260599999    1.5345585094499998   11.5070035579200010 Mg
   5.5674777864600005    3.8370961003499997    5.9101017955200001 Mg
   9.3172057293600012    7.4104974907200001    6.0519676276799999 Mg
   9.7774312485599992    3.6174797074800003    5.2843514255999997 Mg
   8.0907364360800003    1.8224995238100001   11.5619028969599995 Mg
   5.4966291335999999    0.0009474577200000    5.5470143664000000 Mg
   5.2299027205199993    7.0381896730199998    6.0735932337599996 Mg
   3.4316402209199999    8.9444100062699992   11.7792031125600012 Mg
   7.9317190045799997    5.2894411194600002    0.4388002538400000 Mg
   3.5372348432999998    5.3308708615800002   22.6480888670400020 Mg
   1.6104545436600000   10.8110955128399997    1.7813976991200000 V
   6.8750327550600003    1.8486407436299999    4.0473760392000004 V
   7.0932874834799993    1.7914487503500001    7.5670130390400008 V
   1.8923867233200000   10.7233910743500012    9.8580510943200004 V
   2.0165524673399999    3.5345771569799997    2.0376564904800003 V
   7.1735626544399995    5.4016287267600003    3.8399836924800002 V
   7.2490628975399991    5.6346387264899995    7.4903720767200008 V
   1.5976626705000001    3.4769760342300002    9.7754004410400004 V
   1.6130446336800000    7.0663550070600003    1.9829891858399999 V
   7.2454684869000001    8.9039277218699997    3.9882536740800001 V
   6.9599771359199991    9.0458741148299993    7.5852277394400005 V
   1.7671461800399999    7.2060404213699991    9.9484981034400004 V
   6.2557545650400002   21.5108001441900001    1.7916768230400002 V
   2.7348002875799997    1.7509449328200000    4.1998226399999998 V
   2.8467556072199995    1.8409534162200001    7.7394610051200008 V
   5.8363714177199997   10.7498983573799993    9.8424815860799999 V
   5.9598323753400004    3.6166829816699999    1.8360185968800000 V
   2.8355495034599998    5.4382996471499991    4.1823504496799995 V
   2.6561813646600001    5.4468267666299992    7.7052359311200007 V
   6.3396593859600001    3.7186638853499998    9.8083493258400001 V
   6.1809943476599996    7.4045758799699994    1.6411793112000002 V
   2.2935335225400002    9.0725967291599989    4.2472504713600001 V
   2.8222818994799996    8.8775927038799995    7.6443269011200004 V
   6.0078459488400000    7.1132972304600006    9.8055185061600003 V
   0.1262624835600000   11.1515988975300004    1.1152501401600001 O
   8.5604413323599999    2.0270857919399998    4.3060711917600001 O
   8.6020589692799998    1.2654805169700001    7.2218154621599995 O
   0.1399001004000000   21.4604987525100022   10.0343044245600002 O
   0.4122295653600000    3.6417044787299999    1.8696867883199999 O
   8.8034693027399999    5.0462459492400003    4.1458050316800001 O
   8.9574827508000006    5.7770803814400002    7.2479657390399996 O
  17.6121011658600004    3.0668560402499998    9.8976361629600014 O
  17.5647923787600000    6.8764758667199999    1.6650324475200000 O
   8.8286830361999993    8.3232438051599988    4.2834710412000003 O
   8.6888534144400005    9.0839446886699999    7.3216598644799999 O
   0.1604798632800000    7.6955530656599995   10.1819943201599994 O
   4.6525240819799993   21.3446074468500022    1.3827161930400000 O
   4.3195125079799999    1.5151786924499999    4.5662977713600004 O
   4.5017350317000000    2.2285282230900001    7.5479398113600009 O
   4.1939548108199993   10.9463020361099996   10.1361907296000009 O
   4.2796392173999998    3.3580054909800001    1.6231270348800000 O
   4.4413876962000005    5.7508099628400009    4.6237030819200005 O
   4.2815245210199997    5.4168957159299991    7.1364732098399992 O
   4.7819052453599999    4.1416606910700002   10.1031954379200002 O
   4.5195485079599997    7.6114231267499992    1.6699515768000002 O
   4.0033629485999995    9.1247715031499990    4.3812503373600000 O
   4.3064739595799999    8.4792728651400004    6.9911732685599999 O
   4.3756839840600001    6.8860150433099996   10.2245958360000007 O
   1.7926065887400000    0.0194013501300000    3.8308183336799999 O
   6.5937525028199993    1.9609360165799998    2.0387238487200001 O
   6.5029760144999997    1.7691619608000000    9.5814892929600006 O
   2.3539513366799998   10.7714099542500001    7.7444961515999999 O
   2.3410185062400002    3.6204943456800001    4.0688856280800003 O
   6.5137768660799997    5.4473650948799994    1.9588112013599999 O
   7.1200165076999999    5.5888162258500005    9.4996971669600008 O
   1.8448136413200000    3.4851801567599998    7.9887355610400004 O
   2.0448320216400000    7.1860146104700000    3.8215369576800002 O
   7.1076298867199990    9.0589662578699990    1.8115157642400002 O
   6.4906774918199996    9.0169766543699996    9.5761989086400003 O
   2.0890926075600000    7.2943047212399996    8.0831967652800003 O
   6.2616923904599995   10.7759103784200008    7.9735605112800005 O
   6.6463648075800004    8.8755901227900011    5.7393708839999995 O
   6.6441447304199999   21.4769069975699978    3.7698628968000003 O
   2.6326414989000000    1.6585032057300002    2.2175527608000003 O
   2.2891990861800000    1.6743300562800001    9.6358549528800008 O
   6.3236783543400001    3.7645509853800001    3.8159217251999999 O
   2.5203337860600001    5.5069903318500000    2.3063523256799998 O
   2.2126240438200000    5.4532436393700001    9.6872041656000007 O
   6.9118578444600001    3.7693744065000003    7.7973303844800004 O
   6.5214061788599995    7.2687233628000003    3.5261803699200001 O
   1.9419684465599998    9.0326097067499997    2.1365495517599999 O
   2.5781086512000000    9.1259773584299992    9.5708621174400008 O
   6.2853908331599992    7.0697357084700005    7.8237591026400004 O
   2.3188353543000000   10.5829089342299998   23.1431110559999986 O
   6.4176440011200002    2.0550357946800002    5.7910913517600004 O
   2.4706287252000001    3.6080266634100004   23.1126913461600019 O
   6.6433166064000000    5.4488078145900003    5.7650338886400005 O
   2.5026788867400001    7.2511953949799999   11.7343972699200005 O
   6.9241916064600000   21.4549001387099985   11.5987963665600002 O
   2.0496950478000002    1.6693343701199999    5.9688064987200002 O
   6.7316968209599999    3.5818208441999997    0.1106804088000000 O
   1.9573680293999998    5.4752504982300003    5.8807726473600006 O
   6.7322430304200003    7.0922378293200001   23.1177961029599999 O
   1.9018661003999999    8.9055642397500012    6.0759831880800004 O
