Mg12 V24 O60
1.0
  17.6196599999999997    0.0000000000000000    0.0000000000000000
   0.0000000000000000   21.5331299999999999    0.0000000000000000
   0.0000000000000000    0.0000000000000000   23.2034400000000005
Mg V O
12 24 60
direct
   7.8037650336599995    8.8781740983899997   11.6464098254399993 Mg
   9.4767869899800008    0.1074718518300000    5.8618386403200002 Mg
   3.2274459811799998    1.8303806493899999   11.8021977216000007 Mg
   5.3961618322799998    3.6725829871500002    6.3375323637600003 Mg
   9.6722771176800002    7.1346796285499998    5.6855621066399999 Mg
   9.5064408777599994    3.4571655546300000    5.3303870505600006 Mg
   8.0122232311200001    2.1912759081900002   11.5457068958400004 Mg
   5.1930071524799999   21.4808906266199990    5.6422876910399999 Mg
   5.2311184770599999    7.4148902492400000    5.8184946143999996 Mg
   3.3895644728399996    8.8733506772699986   11.2590051912000000 Mg
   7.8273929977200005    5.2928218208699995    0.1426083422400000 Mg
   3.4750022041799999    5.0761769999400004   22.9843067126399987 Mg
   1.6823075171399999   10.6383998102399993    1.8698492124000001 V
   7.0913317012200006    1.7246099148299998    3.9604327495200002 V
   7.1486836945200007    1.7588906577900001    7.6699899057600005 V
   1.7907036654599999   10.9025897822100006    9.8013418869599995 V
   1.4322493024200000    3.7221953186700003    1.9312919215200002 V
   7.0179634369800006    5.3096822616599999    4.0393708524000003 V
   7.1628675208200008    5.5262624831999991    7.6840279869599994 V
   1.5122777981400000    3.4434489508200001    9.6831899704800009 V
   1.7262685688400001    7.0210493015400006    1.8704060949600001 V
   7.2232853349599999    9.0460894461300008    4.0963352976000005 V
   7.0444457859599998    8.9672781903300010    7.6249288252800005 V
   1.3437809895599999    7.3578705209999997    9.7305713949600001 V
   6.1240476065400005   21.5317949459399998    1.6838968442400000 V
   2.5915524517799997    1.8801652459500000    4.1179144968000001 V
   2.8001516065200001    1.9000833911999999    7.6122597470400004 V
   5.9946664431599990   10.7407898433899991    9.7688338675199997 V
   5.9684660087400001    3.5559380219400003    1.6531754896800002 V
   2.7975086575199999    5.4155821949999998    4.0791879554400001 V
   2.6177352665400000    5.4826363618200000    7.6877405373599998 V
   6.0199858945799996    3.6842754767399999    9.7033537598400006 V
   6.2624324161799994    7.2842487495299997    1.9628950068000002 V
   2.7142557640199998    8.9820283843799995    4.0985396243999999 V
   2.4431772949199999    8.8959173975100008    7.5036908512800000 V
   6.1359232573800000    7.1637493540500001    9.7818974042400004 V
   0.2120349884400000   10.1852996887799989    1.3415300870400000 O
   8.6658245188200009    1.8724779185399998    4.2105426292800008 O
   8.7961923831599993    1.5307040791800000    7.1762903128800009 O
  17.6204000257200022   21.0386001364199977   10.0650025756799995 O
  17.3656021224600003    3.7614286815300000    1.6915075725600002 O
   8.5843688306400008    4.9342736732399999    4.3256548951200005 O
   8.7228593582399991    5.9612532423299998    7.1703966391199998 O
  17.5266986738400021    2.7639495005399999    9.9552503044799998 O
   0.0844334107200000    6.9682285336499996    1.5145813425600001 O
   8.7620454820799996    8.4752677029600001    4.3175104876799999 O
   8.6579485307999988    9.1861193905200000    7.2292405629599994 O
  17.4492955074600005    7.9753545568799993   10.1534076820800010 O
   4.4520475904999994   21.4881903576900015    1.3765208745600002 O
   4.1358451721399998    1.5134129757899999    4.5097277846399999 O
   4.4816486192999996    2.1628306434600000    7.4351246860800000 O
   4.3903259215199997   10.6348899100500009   10.0240949109599988 O
   4.3233535938600003    3.5461404477900000    1.0773125157600001 O
   4.3904140198199997    5.7339495220499996    4.3288801732800000 O
   4.2912681929999996    5.0948677567800003    7.4751506200800009 O
   4.4121919195799997    4.0455583318799997   10.0560924547199999 O
   4.6855433248200002    7.5749460045300001    1.6308305769600000 O
   4.2603280700399999    9.3436988358599997    4.4933461559999994 O
   4.0108336844399997    8.4733297212600007    7.2898711516799999 O
   4.4499508509599996    7.1650413418500003   10.0569045751200008 O
   1.9039099809600000    0.0535098280500000    3.8716099812000002 O
   6.6237411641400001    1.8235331140500000    1.9457940715200002 O
   6.6807583838999998    1.9092995708400000    9.6749527492800009 O
   2.2598975916000001   10.9422968739299993    7.7923880517599997 O
   1.9232916069600001    3.6625700816999998    4.0189518252000003 O
   6.5799386893800005    5.4682306978499993    1.8594308678400000 O
   7.0252579762199998    5.4250783053300005    9.6913343779200005 O
   1.9792868864399999    3.6562178083500001    7.8928589469599997 O
   2.1558887386199999    7.1659242001800001    3.8532792635999997 O
   6.9676064486999998    9.0943451904600003    2.1310271330400004 O
   6.7067650020600000    9.0383590524600006    9.6473174522399994 O
   1.5887823618599999    7.1992574854200004    7.5653191879200010 O
   6.3125074898999998   10.9146914012699998    7.6506614402399995 O
   6.3967823236799992    9.1476396872100008    5.7815083310400004 O
   6.4232118136799992    0.0530576323200000    3.7947137810400000 O
   2.0700281354399999    1.8786148605899999    2.0840401670399999 O
   2.4037444958399998    1.8099887752800001    9.5788905076800006 O
   6.4047287903400001    3.5345556238500002    3.6112905878400001 O
   2.4358827556800002    5.3438553389700001    2.0545717982400000 O
   1.8891447058799999    5.4092729879100006    9.6000520449600000 O
   6.8567787872999997    3.6204082131600002    7.8769413871200005 O
   6.3636221235599999    7.1405151067800006    3.8897782747200003 O
   2.4245180749799999    8.8869380823000004    2.1474551685600001 O
   2.2151084158800001    8.9915460278400001    9.4013841916800001 O
   6.2773386485399998    7.2631893483900001    7.8654788877599993 O
   2.4439173206399998   10.6852989673799996    0.1986910567200000 O
   6.4567772659799996    1.6770001644000001    5.7806498037600003 O
   1.9989856663199999    3.6425442708000002    0.1204954639200000 O
   6.4539757400399997    5.3614909724399995    5.9322610807199991 O
   2.0605487583600000    7.3287792623700003   11.4291096098400011 O
   6.9610343155199992   21.3746030969399996   11.6317916582399992 O
   2.0511222402599998    1.8251265656700000    6.0406211455199994 O
   6.8449736151000007    3.6892496297700004   23.1800045256000011 O
   2.1361899587400002    5.5057414103099998    5.8545295567200002 O
   6.9396969072600001    7.3630384722000004   -0.0019722924000000 O
   1.7626531667400001    9.0350214173100003    5.7568894812000000 O
