Mg12 V24 O60
1.0
  17.6196599999999997    0.0000000000000000    0.0000000000000000
   0.0000000000000000   21.5331299999999999    0.0000000000000000
   0.0000000000000000    0.0000000000000000   23.2034400000000005
Mg V O
12 24 60
direct
   7.8629318519400000    8.7952930810199987   11.6529067886400011 Mg
   9.5084847583199998    0.1582900386300000    6.4432936432800005 Mg
   3.5535858877799997    1.7406520966800001   11.5580047190399995 Mg
   5.3913340454399998    3.7105028290799997    6.2128138737600000 Mg
   9.9715999017599994    7.0918071667200007    5.5514694268799998 Mg
   9.6149251243799991    3.6207958094999997    5.2699188859200001 Mg
   7.9698127094999993    1.7297993991600000   11.2541092653600003 Mg
   5.2558212403799995   21.4354987885799986    5.3507364674400000 Mg
   5.5306350774000004    7.2897396976800000    6.0727347064799995 Mg
   3.3511359943799999    9.1825448909399991   11.9590993828800016 Mg
   7.7542714087199993    5.4596820452400001    0.3096034999200000 Mg
   3.3398241726599998    5.1601992731999999   23.0079046111200007 Mg
   1.6358444737200000   10.4769013352399991    1.7967351729600001 V
   7.0440405337799996    1.7053808297400002    3.9980223223200002 V
   7.0751744730000006    1.7085892661099999    7.5516755652000001 V
   1.8983597880600001   10.8376027958700014    9.7611999357600006 V
   1.7434301176799998    3.6225399930299997    1.7251293571199999 V
   6.9403488346800000    5.2985281003200004    3.9150468208799998 V
   7.3225544993999998    5.4282867416999991    7.4789095773600005 V
   1.6666964983799999    3.5909939575799998    9.7521505941600015 V
   1.6658331350400000    7.0180346633399999    1.7290971453600001 V
   7.2813068753399994    8.9180749882800008    4.0595346417600000 V
   7.2446051235599995    9.1285398008999987    7.8045002474400000 V
   1.7423024594400001    7.2801143885699995    9.7676504920800014 V
   6.4388052127800002   21.2496894098099993    1.7328096957599999 V
   2.6508249880200001    1.6416427649400001    3.9668601024000001 V
   2.7806466429000003    1.9668576273300000    7.6223300400000005 V
   5.7939080371200005   10.7483910382799994   10.0204055640000007 V
   5.8769847340199997    3.3053354549999998    1.8702900777600000 V
   2.9906025114599997    5.1539546654999997    3.9604559529600003 V
   2.5961335633800000    5.3219346126299998    7.4912306040000010 V
   6.2353862380799994    3.7010713181399999    9.8032213655999989 V
   6.0739725328200000    7.3910100080700003    1.9211752216800000 V
   2.8515833940600004    8.7483293244899993    3.8870634722400004 V
   2.7602959355999999    8.7983723186099994    7.3641453631200005 V
   6.1054941045600000    7.1648690768099996    9.7819438111199997 V
   0.0565767282600000   10.0702051089300006    1.7007193382400001 O
   8.6200486421400004    1.7394462414000000    4.2811042903200001 O
   8.7196173407999993    1.6576418805299999    7.4061899964000002 O
   0.1479875243400000    0.1153745105400000   10.1270021673600006 O
   0.1964768286600000    4.1649595377300006    1.3805582731200001 O
   8.4986139454200007    4.7361473441099999    4.2379690953600004 O
   8.8451574183000012    5.3835624306899996    6.9520058618400009 O
   0.0626202716400000    3.1736603650499999   10.1270949811200008 O
  17.6323990141799989    6.8768634630599994    1.7232266750400000 O
   8.7321977780399997    8.1116377366499997    4.2342565449600000 O
   8.8575440392800004    9.3372388968600006    7.3463715280800006 O
   0.1901866100400000    7.6499674294500002    9.9727456982400007 O
   4.9003269802200000   20.8940051684700023    1.2818508393600001 O
   4.3780626381600003    1.3889514843900002    4.1756214520800006 O
   4.3323748597799998    2.3670293152499999    7.2663892704000004 O
   4.1325326760600003   10.9312934445000014   10.3290113160000008 O
   4.3455015064799998    2.7713568972600000    1.4040633578400001 O
   4.6744429390200004    4.8519740503800000    4.2871139812800001 O
   4.2288417376199998    5.1383431462500004    7.2629783647199995 O
   4.6508325946199998    3.9189219943499998   10.1357034573600000 O
   4.4626898651399998    7.4758505402700006    1.4464328392799999 O
   4.4467440728399996    9.0536260416300003    3.9859101266399999 O
   4.3673146455599996    8.7520545559799992    6.9267605191200001 O
   4.4648042243399999    6.8859935101800005    9.8725300408800010 O
   1.7119614049200000   21.5176907457900022    3.6187620955200002 O
   6.7044744462599999    1.6463800535399999    1.8919388872800000 O
   6.7796575354800002    1.8169009100099998    9.5259402576000003 O
   2.1985987944600001   10.7731972040399988    7.5271959360000009 O
   2.1965196745799997    3.5071224162299997    3.6110121465600002 O
   6.4044292561200002    5.5618998133500002    2.0682154209600001 O
   6.9976655886599994    5.3759612358000002    9.4292051162400004 O
   1.8502228769400000    3.6148957318799999    7.7350059446400001 O
   2.1824415662400001    7.0958123289000001    3.7186993116000000 O
   7.0211878347600001    9.1963045610099989    2.1372456549600001 O
   6.5971530971999996    9.0079542728999993    9.6111200858399997 O
   1.9724152190399999    7.0778967647400002    7.8025279550400004 O
   6.1875488611799998   10.6910913793500004    7.7114544530400000 O
   6.5808549117000004    8.9714125512899994    5.8481486107200000 O
   6.5029760144999997   21.5558043858899993    3.8252959149600003 O
   2.0222083781999998    1.5802518113099999    2.0270293149600001 O
   2.3057087076000000    1.9048852791899999    9.4919704214399996 O
   6.6256969463999997    3.5104815845099999    3.4812353066399999 O
   2.7769112749799998    5.3014350728700004    1.8506831709600000 O
   2.2997004035399997    5.3958578479199995    9.5407208488800013 O
   6.5978050246199995    3.5211835501199999    7.7760296265599997 O
   6.2905181542199990    7.2072893429099993    3.8585232410399999 O
   2.4672281308200001    8.6951855596499996    1.9114065734400001 O
   2.5423936003800001    9.0349352847900004    9.5413473417599999 O
   6.6857271280199999    7.2852608066400002    7.8531114542400005 O
   2.3551318539000001   10.6228098241199991    0.0104647514400000 O
   6.4089222694199997    1.8894460249800000    5.7676790808000007 O
   2.4496084708200003    3.4372689425099998    0.0170081215200000 O
   6.2868004059600002    5.4373952556899994    5.8640893739999997 O
   2.5565421873599998    7.0493007681000002   11.5550114752800006 O
   6.7051616129999996    0.3304474129800000   11.5312047458400002 O
   2.0493778939200000    1.7444849938200000    5.8632772536000006 O
   6.6728119172399998    3.6449129150999999    0.0975472617600000 O
   2.1370357024200000    5.1820554001500003    5.6208245090400002 O
   6.7764859966800000    7.3460057663699994    0.2122650691200000 O
   1.9423560790800001    8.7530450799599997    5.6879520609599998 O
