Mg12 V24 O60
1.0
  17.6196599999999997    0.0000000000000000    0.0000000000000000
   0.0000000000000000   21.5331299999999999    0.0000000000000000
   0.0000000000000000    0.0000000000000000   23.2034400000000005
Mg V O
12 24 60
direct
   8.0057039569199997    9.3682896703199994   11.1406908506400004 Mg
   9.6996052103399997   21.6005932962900005    6.1684720999199998 Mg
   3.6047533804199996    1.9018060416000000   11.5222946248800007 Mg
   5.3714414492999998    3.5429535445499996    6.3530554651199997 Mg
   9.8093228331600013    7.3229653172700004    5.9368785652799998 Mg
   9.7323601582800006    3.6598138410600001    5.4120399559200001 Mg
   7.8261948608400003    1.8806605079400001   11.4725928564000004 Mg
   5.3773792747200000    0.1623382670700000    5.3432185528800007 Mg
   5.3864357799599993    7.2787147351199994    5.6810838427200006 Mg
   3.3623949571199998    9.3175360829099994   12.0866022856800015 Mg
   7.7835376639799998    5.3819474459399999    0.2817129650400000 Mg
   3.5976878967600001    5.3685753722100005   22.5801956015999998 Mg
   1.5863156094599999   10.8230033337300000    1.7270784460799999 V
   7.2126782996399994    1.8312635077199999    3.9015424187999996 V
   7.2268621259399994    1.7844504830999999    7.5961565596799998 V
   1.8246919896000000   10.8359016785999991    9.9189137174400006 V
   1.6939364927400000    3.8784827762099998    1.6429891795200000 V
   7.0331868232199994    5.3205564923099997    3.9932888205600001 V
   7.2222457750200002    5.5280497329899996    7.5406771346400010 V
   1.4866235731799999    3.7383666992999998    9.7168117550400002 V
   1.6560013647600000    7.1932282090199999    1.7443186020000001 V
   7.1432215999199995    8.9057580379200001    3.9610824458400002 V
   7.0531146586799993    9.1016018552700011    7.6428186775199993 V
   1.5432003014400000    7.2750971692799995    9.7693907500800012 V
   6.3250350681600001   21.5100895508999983    1.6337542104000000 V
   2.7481912291800001    1.9531194903900002    3.9110094223200003 V
   2.4281829642599999    2.0061340564500001    7.5767584838399999 V
   5.7624040850400000   10.8829085013900002    9.8380729324799994 V
   6.0311215197000001    3.6010499292899998    1.9396219564800001 V
   2.7413019421199998    5.3680801102199993    3.9586460846400002 V
   2.5831478739599998    5.4471497635800006    7.4214114530400002 V
   6.3655250468399993    3.7535906222099999    9.6571093039200004 V
   5.9675850257400000    7.3313417048399998    1.7934634879200000 V
   2.3466744171000000    8.9930533469400000    4.0712523789600006 V
   2.8043979445799998    9.0308870563500001    7.6152065839200000 V
   6.2203919074199998    7.2863159300099998    9.8262391780800016 V
  17.6748976341000024   11.2076927011799992    1.4348775261600000 O
   8.7835767065999999    2.0350530500399997    4.2416816457600000 O
   8.9010998387999987    1.6088047416900000    7.3452113560799992 O
   0.2823198121800000   21.1412055008700008   10.1624106168000008 O
   0.0804866068800000    4.1753385063900001    1.4784767899200000 O
   8.5676830126199999    4.8680162322299996    4.2945854889600001 O
   8.8452455165999986    5.8798795440600005    7.2678510871199995 O
  17.5246019342999979    3.8732071593600002   10.1928999369600000 O
  -0.0434500815600000    7.0171948712699992    1.6436852827199999 O
   8.7180315713999992    8.3852592195600000    4.3812967442400002 O
   8.5965968746799994    9.6788189380500000    7.4904184836000010 O
  17.5009034915999990    7.5360141054899996    9.9006758136000013 O
   4.6691218016999994    0.2073209756400000    1.3762656367199999 O
   4.3248512649600004    1.6197866379899999    4.2620542660800007 O
   4.0488569107199996    2.3929552037700001    7.4314353391199992 O
   4.1684944021199994   10.6753075950599996   10.4049097682400014 O
   4.3819037240399998    3.3019332204600000    1.5550481419200000 O
   4.2955497703800001    5.5253150254799994    4.4587266235199996 O
   4.2042623119200000    5.2157116823399994    7.1722993212000006 O
   4.6811912688000001    4.1332627703700000    9.7880695192800005 O
   4.3822032582599997    7.6009580255699998    1.5060888835199999 O
   4.1416948992600000    9.1479626841599995    4.2747001408800003 O
   4.4208431726400006    9.0693882927900002    7.1014592188799996 O
   4.5020345659199998    7.1297270086499998    9.9893129544000008 O
   1.9099711439999998    0.1392116854500000    3.7441302818400000 O
   6.8648838308999993    1.8574477938000000    1.9533815963999999 O
   7.0054534783799998    1.9588257698399998    9.5642955439200001 O
   2.1397138907400000   10.9283003394300007    7.8393750177600001 O
   2.0770583797800000    3.7124408107800000    3.6794622945600000 O
   6.6016284908399996    5.4340576205400009    2.1108169368000000 O
   7.0100698292999999    5.4826363618200000    9.5282606015999995 O
   1.7137938495600000    3.7093615731899998    7.7633837517600002 O
   2.0094517443599997    7.1572032825299994    3.7050092820000002 O
   6.9238039739400001    8.9132300340300006    2.0633194951200000 O
   6.7295119831200001    9.1460031693299992    9.6300772963199996 O
   2.1412644208199998    7.3118542221900000    7.7670730987200001 O
   6.1666519444199999   10.9317025739700000    7.8375883528800001 O
   6.5228157516599996    8.8209605719800006    5.8391688794400007 O
   6.7826000186999993   21.5965020015899967    3.8787102338400001 O
   2.1481360882199998    2.0220255063899999    1.8981574092000002 O
   2.0387003799599999    1.9072323903599999    9.5333653584000011 O
   6.3868976944200000    3.6103737745800002    3.7865693736000003 O
   2.6663831478000000    5.5329377535000006    1.8978093576000001 O
   2.1768561340199999    5.5170463035599999    9.4326624288000005 O
   6.6977965951200007    3.5989181494200002    7.7498097393600007 O
   6.2980241293799999    7.1295978098699990    3.7107173282400003 O
   2.0436867437399999    8.9415245668499992    1.8561127759200000 O
   2.4068631756599999    9.0660937238999999    9.5625784893599999 O
   6.4660628267999991    7.1557605628200003    7.7253069067200002 O
   2.3365959715800000   10.8963021082499996   23.0777005586400001 O
   6.5035574632800000    1.9091488389300000    5.6930568177599996 O
   2.5118939689199999    3.6541936941299999   23.0715980539200025 O
   6.3047372198399998    5.3005306814099997    5.8566642731999998 O
   2.2067919363599997    7.2762168920399999   11.6352953776800003 O
   6.6954884196599993   21.4080009815699981   11.5715091211200001 O
   1.8302421824999999    2.1074258999700000    5.6550727864799999 O
   6.7324720859999996    3.7316698958700001    0.1663222579200000 O
   1.8632966646600000    5.6150220450599999    5.6324494324800005 O
   6.7301462908799996    7.2145244745899992    0.1165044722400000 O
   1.8845107352999999    8.8187857258500006    5.9779486540800004 O
