Mg12 V24 O60
1.0
  17.6196599999999997    0.0000000000000000    0.0000000000000000
   0.0000000000000000   21.5331299999999999    0.0000000000000000
   0.0000000000000000    0.0000000000000000   23.2034400000000005
Mg V O
12 24 60
direct
   7.6064953202999996    9.1672348355100013   11.4821990805599992 Mg
   9.7411171292999992    0.0893409563700000    5.7856617468000007 Mg
   3.3559461615599999    1.8174177051300000   11.4040963015200010 Mg
   5.4268728996600002    3.5568208802699997    6.2202389745600000 Mg
   9.8312240705400011    7.1633617577099997    5.9140695837600008 Mg
   9.9442541894400005    3.6514374534899998    5.4100444600800000 Mg
   7.7332863936599994    1.5894249246900001   11.5319936628000015 Mg
   5.3260532051400000    0.2035526778900000    5.3988139951200003 Mg
   5.4041963972399998    7.4506783112999999    5.8393545069600004 Mg
   3.3686146970999999    8.6629935302999996   12.1440075962400016 Mg
   7.9272083716199999    5.5632348674100003   23.0556108837600000 Mg
   3.4351641529199997    5.5244537002800005    0.0756896212800000 Mg
   1.7406285917400000   10.9363106637899996    1.7070770808000000 V
   6.9590961529199999    2.0279901834000000    4.0186269770400003 V
   7.1221132472400006    1.6754497790400000    7.5620939097600006 V
   1.7049663999000000   10.8233047975500014    9.8360310297600009 V
   2.0826438120000001    3.6123763556699999    1.7319511684800000 V
   7.0500312181800000    5.5919815959599992    4.0640129056800003 V
   7.1456002540199997    5.6174552887500004    7.5209310071999997 V
   1.5763957408800000    3.7443313763100003    9.7597613224800011 V
   1.7392366386000000    7.3258076904299996    1.8317723673600002 V
   7.2303508186200007    9.0945174555000001    3.9700853805600000 V
   7.0519165217999991    9.2918685919499993    7.6604300884800001 V
   1.8286916524200001    7.2539516356200000    9.7157211933600003 V
   6.0122332441799999   21.3505936569900001    1.9108496908799999 V
   2.8069351756200001    1.8628741425600002    4.0073501052000005 V
   2.4290287079400001    1.9678050850500000    7.5262213915200000 V
   5.8614441938999997   10.9424045395800000    9.8433401133600000 V
   6.0401780249399994    3.7787413180500002    1.9176482987999999 V
   2.8409587390800000    5.4749275012799998    4.0382570872799999 V
   2.6986447452599998    5.4465253028100005    7.4933885239199993 V
   6.4773570288599993    3.7051195465799998    9.8811385171200001 V
   6.1474641346799999    7.2709197420600002    1.7096062557599998 V
   2.6485168125600000    9.1812098368799990    4.0975882833600004 V
   2.7637317692999996    9.0543581680499994    7.5694029933599998 V
   6.0952218427800000    7.1617683060900008    9.8405789039999991 V
   0.0874816119000000   11.1646049080499985    1.5498505713600002 O
   8.5109300877600003    2.4397682283900002    4.4616966638400006 O
   8.6464957517999999    1.0782499516199999    7.2530704958399994 O
   0.1493089988400000   21.5198009925299978   10.0017035913600001 O
   0.3521112854400000    3.6559163445299996    1.6012461909600000 O
   8.6766077507400006    5.3927140109399998    4.2351614791200003 O
   8.7083407584000003    6.1056328789800007    7.1037563594400002 O
   0.1277249153400000    4.3676078241600003   10.3120031944800008 O
   0.1410806176200000    7.4160745713900003    1.6506231112800003 O
   8.7466987582199991    8.6862708438300000    4.5335345140800003 O
   8.6949145774800005    9.4596762740399996    7.4102970052799995 O
   0.1616956198200000    7.5193043966099999   10.1208068488799992 O
   4.4362956144599996   21.1822907129099995    1.3837603478400000 O
   4.4165968345800000    1.6375945365000002    4.2293838225600000 O
   4.0328758790999997    2.3042602412999997    7.3306860026400003 O
   4.5078138144000004   11.7554093958600010   10.3139058765599998 O
   4.3591567429799998    3.9341889835199999    1.4376619389600001 O
   4.3386650784000000    5.8356935612999994    4.5323511386400002 O
   4.3138918364399998    5.0602424837400006    7.3519635571200004 O
   4.8905656885799997    3.7533106915199999   10.2097920412800001 O
   4.3812165572999993    7.0885556640900003    1.4644387087200001 O
   4.2402240379800000    9.3853223761500004    4.2410087460000003 O
   4.3703452270800005    9.1445604496200001    7.0730814117600005 O
   4.5629633501999995    6.7640513949900001   10.3462978787999997 O
   1.9102882978800000    0.1463391514800000    3.6692527809600000 O
   6.4231060957199997    2.0118618690300001    2.1407957812800000 O
   7.0690252116599996    1.8401351572800000    9.5822085996000013 O
   2.2032327650399997   10.8031067216099981    7.9835147870399998 O
   2.4237956689200000    3.5997579414899996    3.7852699809599999 O
   6.7329830561400001    5.5715681887199997    2.0536668640800002 O
   7.0718267375999995    5.5477310138100000    9.7289471541600001 O
   1.8730227169799998    3.7400678165700003    7.7385560709600005 O
   2.1225875812199999    7.2668715136199999    3.9054638001599997 O
   6.9294246454800001    8.9534754539999994    1.9763065951200001 O
   6.5900347545600004    9.1088585200800001    9.6594992582400003 O
   2.2483038553199997    7.3186371581400005    7.7601352701600002 O
   6.2921920219200000   11.0334035469599989    7.9671331584000002 O
   6.4007291275200000    9.2026137681000009    5.7198567909600007 O
   6.6039542859599996    0.2071487106000000    3.7837385539199997 O
   2.6138765610000001    1.8273875443199998    2.0159844775200000 O
   2.3155228582200000    1.8243298398600001    9.6224897714399997 O
   6.2021555593199995    3.8409505306200002    3.8466430797600002 O
   2.4449040215999998    5.5641392588700000    2.1045056011200001 O
   2.4457673849399999    5.4194581584000003    9.4009433263200002 O
   6.8751560926799993    3.6100077113699998    7.6807795053600003 O
   6.3759558855599998    7.3818799609499992    3.9109398120000001 O
   2.4666819213600002    9.0481996928699999    2.0476339696800001 O
   2.5471332889200000    9.1034752375799997    9.5526706204800007 O
   6.1811529246000001    7.3105407012600008    7.7439856759200003 O
   2.4735535887600002   10.7829947781899982   23.1880097123999995 O
   6.3093888100799997    1.7894246361299999    5.9129326151999999 O
   2.3204916023400002    4.0532671924199999   23.0421064816800012 O
   6.4323916565399992    5.4881919093599993    5.9245575386399993 O
   2.1700549452600000    7.0404937179299996   11.6197954797600005 O
   6.8779576186200000   21.2879107155600025   11.5200902980799995 O
   2.1303226119600001    1.7698294878300000    5.7016188871200004 O
   6.9470443054800004    3.7368163139399999    0.1973220537600000 O
   1.9182523841999999    5.4718913299499992    5.7156801717599999 O
   6.6471753119399999    7.2094426559100002   23.1141995697600002 O
   1.8414482862600001    9.1668472391700000    5.8238314056000000 O
