Mg12 V24 O60
1.0
  17.6196599999999997    0.0000000000000000    0.0000000000000000
   0.0000000000000000   21.5331299999999999    0.0000000000000000
   0.0000000000000000    0.0000000000000000   23.2034400000000005
Mg V O
12 24 60
direct
   7.7767012359000001    9.1919118024900008   11.5015043426400005 Mg
   9.8583935862600001   21.4562997921599994    6.2284297888800007 Mg
   3.2461228207800001    1.6159537408500000   12.0405898641599993 Mg
   5.2744628406599992    3.8761787313000000    6.2265967171199996 Mg
   9.6870247730999992    7.5747306732300004    5.2618904956800003 Mg
   9.5361828638400006    3.1182986878199999    6.2930281658400000 Mg
   7.8539986843199996    1.5803810100900000   11.1091109687999996 Mg
   5.2537068811800003    0.2321917407900000    5.3077404931199998 Mg
   5.5317627356400001    7.0593782729400001    6.1356160288800003 Mg
   3.2977484245799999    8.6764948028099997   11.2274021059200013 Mg
   7.8953344066800000    5.8348107029700005    0.2674660528800000 Mg
   3.4446082906800002    5.5269515433600001   22.9639108888800010 Mg
   1.4070179492999999   10.9441056568499988    1.7465229288000002 V
   7.3693346966999993    1.9923097869899999    3.8694984681600002 V
   6.7305515430600007    1.8556174777500001    7.4362384511999995 V
   1.8943248859199999   10.6576073622000003    9.8607658968000003 V
   1.8817444486800001    3.7996284541500001    1.9185300295200003 V
   6.9617391019200001    5.6392037500499992    3.8607971781600003 V
   7.4436368029199995    5.4067966779599992    7.6333052671200008 V
   1.7812771473600000    3.3576609609000001    9.7782776675999994 V
   1.8601427455199999    7.1582368727699990    1.7432048368799999 V
   6.9729452056799994    9.1841598756899998    3.9937296859200000 V
   7.1501461263000001    9.1056500837099996    7.4996302492800000 V
   1.2847551285599998    7.0612085889900005    9.6908006988000004 V
   6.4075479359400003    0.0386519683500000    1.8381533133600001 V
   2.5716069966599999    1.9266983398799999    4.1535781840799997 V
   2.8630714123800001    1.7425039458599998    7.6373658691199999 V
   5.8518238595399996   10.7011904173199994    9.7569072993599999 V
   6.3320653125000002    3.5564978833200001    1.6127783006400001 V
   3.1267672439399998    5.4993245375699997    3.8888037302399998 V
   2.6981690144399999    5.2965039861000003    7.7020106529600003 V
   6.0965080779599994    3.6190516259700001    9.8346620268000002 V
   5.8973178216600006    7.4418927942600002    1.7702368444800001 V
   2.7491955498000000    9.1712184645600008    3.9007302984000005 V
   2.7272943124200002    8.7330408021900006    7.5535318404000007 V
   6.1310602312200002    7.1538441142500000    9.6393122654400010 V
  17.3992028140799988   11.3922962246699981    1.3502777839200000 O
   8.9843879716200004    2.0948936183100000    4.4335972979999996 O
   8.3867114847600011    1.6571466185399999    7.1410442875199998 O
   0.2032427781000000    0.3432811584600000   10.2351069943200006 O
   0.3042210495600000    4.2076597345200000    1.7384249282400002 O
   8.5757880562200004    6.0572694689999995    4.2011916429600005 O
   9.0155747698200006    4.9424347295100004    7.4914626383999998 O
   0.1433006947800000    3.0688155550800000    9.8993996243999991 O
   0.2639248871400000    6.8806317608100001    1.5507090986400001 O
   8.6657716598399990    8.8746857313299987    4.1224391675999996 O
   8.7594377724000001    9.1731349131300011    7.2725613854399995 O
  17.3737071660599973    7.1880387246900002   10.2078893591999993 O
   4.7999830165199997    0.1091945022300000    1.3209254323199999 O
   4.1989059352800000    1.6873145336699999    4.3755422911199995 O
   4.5142626099599994    1.9958196871800000    7.2147848198400002 O
   4.2114335135400003   10.2958077119400002   10.0431913420800001 O
   4.7325878170199998    2.9517399272700002    1.5441193216800000 O
   4.7886007161600004    5.5233770437800001    4.2282468540000000 O
   4.3831723395599997    5.2748631904499996    7.3347466046400003 O
   4.4962024584600000    3.8970874005300002    9.9610047575999996 O
   4.3220321193599993    7.7753333123099999    1.4878045728000000 O
   4.2454746966599997    9.5550034405499993    4.3521764270400007 O
   4.2894181286999995    8.1227057654700001    7.3419628744800001 O
   4.5755966464200002    6.6473418303900003    9.9792658648800003 O
   1.7236432394999999    0.2318041444500000    3.8944421661599997 O
   7.1549034345000004    1.8147475970100000    1.8009349956000000 O
   6.4004119736399998    1.7013756675600000    9.4920400317600002 O
   2.0986248436200001   10.6624092501900005    7.9543712663999999 O
   2.1452640836399999    3.7751237522099999    3.9567201991200003 O
   6.4617636297600001    5.5408834784700005    1.7302805208000001 O
   7.1592202511999998    5.3622876982500003    9.5036881586399993 O
   2.1480303702599999    3.4425014931000004    7.9550209627199999 O
   2.2317766142399997    7.2320524424100006    3.6896021978400002 O
   6.6606014928599997    9.2050685449199996    2.0318788339200000 O
   6.7454930147399992    9.0639404109000008    9.4998827944799995 O
   1.7433948783600002    7.0141802330700003    7.8308593552799994 O
   6.2847917647200005   10.8180937800899990    7.9499858162400008 O
   6.4016101105199992    9.1231349852699992    5.7665189088000002 O
   6.8653243223999993    0.0964468892700000    3.8345308840799999 O
   2.4325350202799996    2.0281193821800003    2.2227967382400000 O
   2.7588863627999998    1.6990500895200000    9.6839556840000007 O
   6.8325517547999999    3.7811745617399999    3.3540108451200004 O
   2.7711672658199999    5.4395055024299994    1.8932614833600001 O
   2.2407274015200001    5.2435540194300003    9.6322352162399998 O
   6.4360917851400004    3.7742193607499996    7.8921164368800003 O
   6.2171675096400003    7.4696489988300003    3.5715895020000001 O
   2.0861853636599998    9.1224028588500001    2.0275629940800002 O
   2.3251784319000000    8.7604524766799994    9.4190652129600014 O
   6.8653948010399999    7.1832799029599999    7.7421526041600002 O
   2.3979476276999998   10.8980893580400000    0.1223517391200000 O
   6.4519142398199998    2.0360005077599999    5.5717724368799999 O
   2.6230564038600002    3.6331342929900003    0.0282849933600000 O
   6.6619053477000003    5.4447165198900001    5.8400738136000010 O
   2.2149850782599998    6.9980949849599998   11.5596057563999999 O
   6.7970481399000002   21.4753996784699979   11.4660958932000003 O
   1.8577993307400000    2.0355698451599999    5.9142784147200000 O
   6.9364548898200002    3.6588448502100004   23.1878008814400012 O
   2.1704425777799998    5.4254874348000000    5.7441507926400002 O
   6.6474396068399999    7.3465225614899996   23.1842971620000000 O
   2.0888459323199999    9.1232426509200000    5.7799537005600001 O
