Mg12 V24 O60
1.0
  17.6196599999999997    0.0000000000000000    0.0000000000000000
   0.0000000000000000   21.5331299999999999    0.0000000000000000
   0.0000000000000000    0.0000000000000000   23.2034400000000005
Mg V O
12 24 60
direct
   7.5628338028200002    8.9393281875900001   11.6743003603200002 Mg
   9.5441117108399993    0.2844311141700000    6.0696486489599994 Mg
   3.2483252782799998    1.8679990274999998   11.6623041818400015 Mg
   5.1748236633599998    3.7179102258000003    5.6898547430399997 Mg
   9.5850245613600009    6.9027247521899993    5.6611520877600006 Mg
   9.3163247463600012    3.5743703812200001    6.1055907775200007 Mg
   8.0278871088599999    1.8447001808399999   11.4818974358400006 Mg
   5.2746037979399993    0.1655036371800000    5.2291736452800004 Mg
   5.1638818544999996    7.5184215382800001    6.2241835593600001 Mg
   3.2613814463400002    8.8147805636699985   11.4902970811200014 Mg
   8.0093336068800003    5.6739366887400005    0.2645656228800000 Mg
   3.4108137828000000    5.4572272684199996   23.1280984303200015 Mg
   1.5943854137400000   10.6315953411600006    1.7997516201599999 V
   7.3766820949199996    2.0257722710099997    3.9835897826400002 V
   6.7281376496400007    2.1264827200199998    7.4979828050400004 V
   1.8400739527799999   10.9554966826199980    9.8849438812799999 V
   1.4076874963800001    3.7691806083300001    1.8479451650400001 V
   7.0055591963399992    5.5280497329899996    3.8582215963200004 V
   7.0360588277999998    5.5229033149199998    7.4905112973600003 V
   1.5923767725000000    3.7000807941600002    9.8087437843200007 V
   1.9429727671799999    7.2549852258599996    1.7097454764000000 V
   7.0360235884800000    8.9498794212899995    3.9477172644000005 V
   7.1228532729599996    9.1801116472499995    7.7757047784000006 V
   1.2627657928799998    7.4544681421799996    9.9546006081599998 V
   6.3564861612599994   -0.0166020432300000    1.8706613327999999 V
   2.4883364834999999    1.8681497594100001    4.0013636176800000 V
   2.7978081917400002    1.9755139455900002    7.6977876268800003 V
   5.9268836111399992   10.9882055070899991    9.8135004895200009 V
   6.0720167505599996    3.4467435197099996    1.7703528616800002 V
   2.7573534523799998    5.2901517127500002    3.9866758401599998 V
   2.2545940739399999    5.7666798796500007    7.6590610855200003 V
   5.8855655084400000    3.8937928316399999    9.7166261275200014 V
   5.9816631340799997    7.2767121540299993    1.6521313348800000 V
   2.7305010905399998    9.0173427175800001    4.2002403019200001 V
   2.5186775380199999    9.0908137571399994    7.5619314856799997 V
   6.1947200628000001    7.2414193539599996    9.8689103042399999 V
   0.0045282526200000   10.3730901155100010    1.3558466095199999 O
   8.9211686315399987    2.2938166732499998    4.4592603026399997 O
   8.4087712990799997    1.9062203332500001    7.2795456208799996 O
   0.4409848504800000    0.1788541777800000   10.1456113262400009 O
  17.3716985248200011    4.2495416723699995    1.5590623370400001 O
   8.5934781948599994    5.6299014378900001    4.0489538731199994 O
   8.6370339943799994    5.5863614490300009    6.9858596808000000 O
  17.5598941132800022    3.5826606362700000   10.0731933900000001 O
   0.2621981604600000    7.2381247850700001    1.2501549403200001 O
   8.5950815839200008    8.6860339793999994    4.4074238176799998 O
   8.7003414327600002    9.4493619047700008    7.5763176184800001 O
  17.2066023106199992    7.8131024223300001   10.3447896551999996 O
   4.7037972925800000   21.3230958499799996    1.5682276958399999 O
   4.0974871723200001    1.5958202642999999    4.3377206839199998 O
   4.3828023267000003    2.3186874384000000    7.1731114416000006 O
   4.3516683874800002   10.8264917007899992   10.1731074026400012 O
   4.4716582720800000    3.0255554969100000    1.3869624225600001 O
   4.3568133281999994    4.8698465482800000    4.3107118797600004 O
   3.8221447455000002    6.1986990668400006    7.2874811973600000 O
   4.2716751310799994    4.1735943228599997   10.2341092464000010 O
   4.3682837268599997    7.1919792874800006    1.2127509950399999 O
   4.3511045583600003    8.8173860723999997    4.6192712248800003 O
   4.1117062379400000    8.9297674778699996    7.3614769675199998 O
   4.5776933859600000    7.4589900994799994   10.0840990068000007 O
   1.6825013334000001    0.1130273993700000    3.7976838213600002 O
   7.0101403079400004    1.7874005219100000    2.0119934858400002 O
   6.5207894907600004    2.0740926147300001    9.4720154630400000 O
   2.4278305710599999   10.9897989587100007    7.8028295997599999 O
   1.7917608450600000    3.6179749694700001    3.8015355924000005 O
   6.5311322311799991    5.4452117818799994    1.9484392636800001 O
   6.8400577299599998    5.4835192201500007    9.4406212087199997 O
   2.1670419833999999    3.7819066881600003    7.8914899440000008 O
   2.1545848837800001    7.1775951566399998    3.7627626441599999 O
   6.5082795321599995    9.0191084342399996    2.0002061383200003 O
   6.5947039644599998    9.2008049851799996    9.6550674012000002 O
   1.5164536575600001    7.5454240833000004    8.1011794312800003 O
   6.3010547108999999   10.9669092415199998    8.0082264506400005 O
   6.4465050041999996    9.1229842533600003    5.9316577912800001 O
   6.9276802991399995    0.0707578651800000    3.8311895887200005 O
   1.7726611336200000    1.8418147414199999    2.0281662835200001 O
   2.6162199757800000    2.0055095956800000    9.6274321041600004 O
   6.5421445186799998    3.6085219254000003    3.6714571077600002 O
   2.4821167435199998    5.3658191315699995    1.9793694492000002 O
   1.9620372392999998    5.6458574872199998    9.8561020053600004 O
   6.1865797798799997    3.9494344395599996    7.5877569144000008 O
   6.2713655838000006    7.2392875740900005    3.5989231543200000 O
   2.5956049735800000    8.9878638626100003    1.8877158612000000 O
   2.2959650356200001    9.2240392324500000    9.6527238537599995 O
   6.4113714021599995    7.3077629274899998    7.8636226125600004 O
   2.2809707049599997   10.6508028931199998    0.1223517391200000 O
   6.2783782084799995    2.0043683397900001    5.5903351888800001 O
   2.2565322365399996    3.5965495051200000    0.1392438434400000 O
   6.4458706964400001    5.6969986709700002    5.6899475568000000 O
   2.1833577885600000    7.2864881950499996   11.6494958829600002 O
   6.8665576986000003    0.2588066894700000   11.3998964788800006 O
   2.0763183540600001    1.9486405993500002    5.9072013655200006 O
   6.8651128864799995    3.4953437941200001    0.1307513844000000 O
   1.8836473719600000    5.4869860540800000    5.6147220043199999 O
   6.8879655854999999    7.2689602272300000   23.2072917710400048 O
   1.7706524923800000    9.1153615253400009    5.8160814566400001 O
